 VARIABLES = X,Y,Z,S11,S22,S33,S12,S13,S23
 ZONE, T="0.1000D+01" F=FEPOINT, I=   12 J=    2 ET=BRICK
   0.0000000000E+00   0.0000000000E+00   0.0000000000E+00   0.4505009133E+01   0.8876613452E-12   0.8909639145E-12  -0.1036827093E-17   0.2239339752E-14   0.2215030695E-14
   0.1150000000E+01   0.0000000000E+00   0.1478060416E-15   0.4505009133E+01   0.4348365257E-12   0.4373082834E-12   0.6145398025E-15  -0.3953548049E-14   0.8684455793E-15
   0.1150000000E+01   0.9332047027E+00   0.2405469178E-15   0.4505009133E+01   0.4326207724E-12   0.4338766661E-12   0.1139585353E-14   0.7958839872E-15   0.7680259654E-15
   0.0000000000E+00   0.9332047027E+00   0.2422962513E-15   0.4505009133E+01   0.8390889945E-12   0.8384610477E-12  -0.1099182905E-14  -0.2986193602E-15   0.1280553030E-14
   0.0000000000E+00   0.0000000000E+00   0.9332047027E+00   0.4505009133E+01   0.1495293055E-12   0.1482933219E-12   0.3387236833E-17   0.5364888484E-15  -0.8427779252E-15
   0.1150000000E+01   0.0000000000E+00   0.9332047027E+00   0.4505009133E+01   0.4328561687E-12   0.4353281360E-12   0.5307580414E-14  -0.3419877909E-14  -0.2813400551E-15
   0.1150000000E+01   0.9332047027E+00   0.9332047027E+00   0.4505009132E+01   0.4339626389E-12   0.4352183574E-12   0.4784947800E-14   0.2020611943E-14  -0.3817596688E-15
   0.0000000000E+00   0.9332047027E+00   0.9332047027E+00   0.4505009132E+01   0.8926367365E-12   0.8874704292E-12   0.1245481748E-14   0.1387233719E-14  -0.1777255590E-14
   0.2300000000E+01   0.0000000000E+00   0.1336811773E-15   0.4505009133E+01   0.3683769281E-12   0.3714224253E-12  -0.1594967963E-15  -0.1179177693E-14   0.1620706822E-14
   0.2300000000E+01   0.9332047027E+00   0.3093102835E-15   0.4505009132E+01   0.4147331457E-12   0.4126322376E-12   0.1988740383E-14   0.1029802155E-14  -0.1226525720E-14
   0.2300000000E+01   0.0000000000E+00   0.9332047027E+00   0.4505009132E+01   0.1102544699E-11   0.1110128724E-11  -0.1696847226E-15   0.1591013488E-14  -0.2249579105E-15
   0.2300000000E+01   0.9332047027E+00   0.9332047027E+00   0.4505009132E+01   0.3638700891E-12   0.3663073101E-12  -0.2457044461E-14   0.1793404989E-14  -0.3072190451E-14
     1     2     3     4     5     6     7     8
     2     9    10     3     6    11    12     7
 VARIABLES = X,Y,Z,S11,S22,S33,S12,S13,S23
 ZONE, T="0.2000D+01" F=FEPOINT, I=   12 J=    2 ET=BRICK
   0.0000000000E+00   0.0000000000E+00   0.0000000000E+00   0.9137826101E+01   0.4217444365E-10   0.4217788543E-10   0.2931600129E-16  -0.2817084004E-14  -0.7025856057E-15
   0.1300000000E+01   0.0000000000E+00  -0.1353967706E-15   0.9137826101E+01   0.4266940678E-10   0.4266915040E-10  -0.5202289535E-14  -0.4976596647E-14   0.8487427995E-15
   0.1300000000E+01   0.8783927377E+00  -0.3680764055E-16   0.9137826100E+01   0.4223825245E-10   0.4223328176E-10  -0.5566971504E-14   0.6442152869E-14   0.7194520015E-15
   0.0000000000E+00   0.8783927377E+00  -0.8856448767E-16   0.9137826100E+01   0.4185177022E-10   0.4185756981E-10   0.9301250268E-15   0.1037426791E-14  -0.6671890907E-15
   0.0000000000E+00   0.0000000000E+00   0.8783927377E+00   0.9137826100E+01   0.4169000218E-10   0.4168716675E-10   0.8885534444E-16   0.3284970962E-14   0.2283667543E-14
   0.1300000000E+01   0.0000000000E+00   0.8783927377E+00   0.9137826100E+01   0.4256620623E-10   0.4257187741E-10   0.6534989507E-14  -0.6074005770E-14  -0.8783861433E-15
   0.1300000000E+01   0.8783927377E+00   0.8783927377E+00   0.9137826099E+01   0.4192614369E-10   0.4192710023E-10   0.6347059432E-14   0.5504593654E-14  -0.1007676941E-14
   0.0000000000E+00   0.8783927377E+00   0.8783927377E+00   0.9137826099E+01   0.4345710536E-10   0.4345662693E-10  -0.1292972935E-15  -0.3277039492E-14   0.2319064058E-14
   0.2600000000E+01   0.0000000000E+00   0.1335734313E-15   0.9137826101E+01   0.4110058489E-10   0.4109522981E-10  -0.2560344562E-17   0.4942876134E-14  -0.2739857835E-14
   0.2600000000E+01   0.8783927377E+00  -0.1816544840E-15   0.9137826100E+01   0.4347518873E-10   0.4348455790E-10  -0.1632733308E-14  -0.3381365997E-14  -0.2321326551E-14
   0.2600000000E+01   0.0000000000E+00   0.8783927377E+00   0.9137826100E+01   0.4297594659E-10   0.4296884065E-10  -0.7429054135E-16  -0.3353997076E-14   0.7801275899E-15
   0.2600000000E+01   0.8783927377E+00   0.8783927377E+00   0.9137826099E+01   0.4168333567E-10   0.4169095414E-10  -0.2319980509E-15  -0.9420181432E-15   0.1198658873E-14
     1     2     3     4     5     6     7     8
     2     9    10     3     6    11    12     7
 VARIABLES = X,Y,Z,S11,S22,S33,S12,S13,S23
 ZONE, T="0.3000D+01" F=FEPOINT, I=   12 J=    2 ET=BRICK
   0.0000000000E+00   0.0000000000E+00   0.0000000000E+00   0.1398743099E+02   0.4391503271E-11   0.4386281069E-11   0.5217354208E-16  -0.1206224633E-14  -0.1444982870E-14
   0.1450000000E+01   0.0000000000E+00  -0.8607856106E-16   0.1398743099E+02   0.5066380972E-11   0.5067354959E-11   0.2755966535E-14   0.7941249822E-15   0.9871523862E-16
   0.1450000000E+01   0.8323885354E+00  -0.7347987265E-16   0.1398743098E+02   0.5040766972E-11   0.5036876385E-11   0.1722895348E-14  -0.1420984918E-15   0.6223882211E-15
   0.0000000000E+00   0.8323885354E+00  -0.1809513781E-15   0.1398743098E+02   0.6150443939E-11   0.6157729045E-11  -0.1925391560E-14   0.7255143214E-15  -0.2377679745E-14
   0.0000000000E+00   0.0000000000E+00   0.8323885354E+00   0.1398743098E+02   0.5237384062E-11   0.5232509548E-11   0.1648636186E-15   0.1719885072E-14   0.1126054651E-14
   0.1450000000E+01   0.0000000000E+00   0.8323885354E+00   0.1398743098E+02   0.5039613414E-11   0.5039888772E-11  -0.3164462114E-14   0.3595661950E-14  -0.2193987528E-15
   0.1450000000E+01   0.8323885354E+00   0.8323885354E+00   0.1398743098E+02   0.5136853641E-11   0.5132265727E-11  -0.4191765743E-14  -0.4548088275E-14   0.3042742297E-15
   0.0000000000E+00   0.8323885354E+00   0.8323885354E+00   0.1398743098E+02   0.5147047556E-11   0.5154683191E-11   0.2030433733E-14  -0.4485240483E-15   0.1933577752E-15
   0.2900000000E+01   0.0000000000E+00  -0.1958225075E-15   0.1398743099E+02   0.6077897420E-11   0.6083483490E-11  -0.1388096611E-15  -0.6730434217E-15   0.3515713001E-14
   0.2900000000E+01   0.8323885354E+00   0.2331907613E-15   0.1398743098E+02   0.4510133859E-11   0.4503398718E-11  -0.2273869311E-15   0.3907325395E-14   0.2515593640E-14
   0.2900000000E+01   0.0000000000E+00   0.8323885354E+00   0.1398743098E+02   0.5419775531E-11   0.5430225950E-11   0.5046659434E-15   0.2003920809E-14  -0.2284907844E-14
   0.2900000000E+01   0.8323885354E+00   0.8323885354E+00   0.1398743098E+02   0.4784298750E-11   0.4782427720E-11  -0.3415511429E-14  -0.3730615803E-14  -0.3285027204E-14
     1     2     3     4     5     6     7     8
     2     9    10     3     6    11    12     7
 VARIABLES = X,Y,Z,S11,S22,S33,S12,S13,S23
 ZONE, T="0.4000D+01" F=FEPOINT, I=   12 J=    2 ET=BRICK
   0.0000000000E+00   0.0000000000E+00   0.0000000000E+00   0.1910697663E+02   0.3389853220E-04   0.3389853220E-04   0.1349389132E-15  -0.8137237842E-15  -0.8433898400E-15
   0.1600000000E+01   0.0000000000E+00  -0.7136970985E-16   0.1910697663E+02   0.3389853307E-04   0.3389853306E-04  -0.1044411106E-14  -0.2286863438E-14  -0.4358712806E-16
   0.1600000000E+01   0.7930829933E+00  -0.7460352143E-16   0.1910697663E+02   0.3389853333E-04   0.3389853333E-04   0.1074926106E-14   0.1966350573E-14  -0.1567237091E-14
   0.0000000000E+00   0.7930829933E+00  -0.9368999086E-16   0.1910697663E+02   0.3389853239E-04   0.3389853239E-04   0.4920981372E-14  -0.3765965948E-16   0.1488226717E-15
   0.0000000000E+00   0.0000000000E+00   0.7930829933E+00   0.1910697663E+02   0.3389853362E-04   0.3389853362E-04   0.2390759233E-15   0.8602802145E-15  -0.6679854215E-15
   0.1600000000E+01   0.0000000000E+00   0.7930829933E+00   0.1910697663E+02   0.3389853246E-04   0.3389853246E-04   0.2213303243E-15  -0.1156051464E-14   0.1077678066E-14
   0.1600000000E+01   0.7930829933E+00   0.7930829933E+00   0.1910697663E+02   0.3389853272E-04   0.3389853272E-04   0.1056577946E-14   0.3749244634E-14  -0.4459718962E-15
   0.0000000000E+00   0.7930829933E+00   0.7930829933E+00   0.1910697663E+02   0.3389853282E-04   0.3389853281E-04  -0.2355932610E-14   0.4286068953E-14   0.3242270901E-15
   0.3200000000E+01   0.0000000000E+00  -0.8292882239E-16   0.1910697663E+02   0.3389853325E-04   0.3389853325E-04   0.2126596916E-16   0.1917643005E-14   0.5372445831E-15
   0.3200000000E+01   0.7930829933E+00  -0.1261194277E-16   0.1910697663E+02   0.3389853291E-04   0.3389853291E-04  -0.5261020653E-15   0.1311116441E-14  -0.2895499625E-15
   0.3200000000E+01   0.0000000000E+00   0.7930829933E+00   0.1910697663E+02   0.3389853264E-04   0.3389853264E-04  -0.5792140686E-15   0.2505262954E-14   0.1243284648E-14
   0.3200000000E+01   0.7930829933E+00   0.7930829933E+00   0.1910697663E+02   0.3389853330E-04   0.3389853330E-04   0.3686289708E-14   0.5531759513E-15   0.4164901025E-15
     1     2     3     4     5     6     7     8
     2     9    10     3     6    11    12     7
 VARIABLES = X,Y,Z,S11,S22,S33,S12,S13,S23
 ZONE, T="0.5000D+01" F=FEPOINT, I=   12 J=    2 ET=BRICK
   0.0000000000E+00   0.0000000000E+00   0.0000000000E+00   0.2452883936E+02   0.1482031621E-04   0.1482031621E-04  -0.5269262773E-17  -0.4496331483E-14   0.3363060553E-15
   0.1750000000E+01   0.0000000000E+00  -0.1762672091E-15   0.2452883936E+02   0.1482031608E-04   0.1482031608E-04  -0.8047681290E-14  -0.6441089411E-14   0.1165089405E-14
   0.1750000000E+01   0.7590130018E+00  -0.1283579256E-16   0.2452883936E+02   0.1482031544E-04   0.1482031543E-04  -0.6512510727E-14   0.7294514495E-14   0.2100591949E-15
   0.0000000000E+00   0.7590130018E+00   0.2884283089E-16   0.2452883936E+02   0.1482031521E-04   0.1482031521E-04   0.6070155038E-14   0.7443568435E-15   0.2031958283E-14
   0.0000000000E+00   0.0000000000E+00   0.7590130018E+00   0.2452883936E+02   0.1482031511E-04   0.1482031511E-04   0.7740645416E-16   0.8250354878E-15  -0.1370760086E-17
   0.1750000000E+01   0.0000000000E+00   0.7590130018E+00   0.2452883936E+02   0.1482031611E-04   0.1482031611E-04   0.8580355742E-14  -0.5887814702E-14  -0.5543103935E-15
   0.1750000000E+01   0.7590130018E+00   0.7590130018E+00   0.2452883936E+02   0.1482031567E-04   0.1482031567E-04   0.8949336067E-14   0.8957738387E-14  -0.1509340604E-14
   0.0000000000E+00   0.7590130018E+00   0.7590130018E+00   0.2452883936E+02   0.1482031699E-04   0.1482031699E-04  -0.3391806466E-14  -0.2280917567E-14   0.1694281467E-14
   0.3500000000E+01   0.0000000000E+00  -0.8732385440E-16   0.2452883936E+02   0.1482031534E-04   0.1482031533E-04  -0.1346900129E-14   0.2028883642E-14  -0.1591302830E-14
   0.3500000000E+01   0.7590130018E+00  -0.3074629224E-15   0.2452883936E+02   0.1482031681E-04   0.1482031681E-04  -0.4351983303E-14  -0.6395666663E-14  -0.9363140754E-15
   0.3500000000E+01   0.0000000000E+00   0.7590130018E+00   0.2452883936E+02   0.1482031556E-04   0.1482031556E-04   0.7038141381E-15  -0.2185933911E-14  -0.1199813490E-15
   0.3500000000E+01   0.7590130018E+00   0.7590130018E+00   0.2452883935E+02   0.1482031576E-04   0.1482031576E-04   0.4910987710E-14  -0.4394446430E-16   0.5350074050E-15
     1     2     3     4     5     6     7     8
     2     9    10     3     6    11    12     7
 VARIABLES = X,Y,Z,S11,S22,S33,S12,S13,S23
 ZONE, T="0.6000D+01" F=FEPOINT, I=   12 J=    2 ET=BRICK
   0.0000000000E+00   0.0000000000E+00   0.0000000000E+00   0.3027289030E+02   0.6987125282E-05   0.6987125289E-05  -0.4470405893E-16   0.4210455667E-14   0.3678490743E-16
   0.1900000000E+01   0.0000000000E+00   0.1326762747E-15   0.3027289030E+02   0.6987124605E-05   0.6987124602E-05  -0.8746029034E-15  -0.1038022490E-14  -0.7714330050E-15
   0.1900000000E+01   0.7291274411E+00   0.1852927923E-16   0.3027289030E+02   0.6987125248E-05   0.6987125251E-05   0.6989083934E-15  -0.2995822148E-16  -0.1377170297E-14
   0.0000000000E+00   0.7291274411E+00   0.1165461030E-16   0.3027289030E+02   0.6987124631E-05   0.6987124633E-05   0.3209212535E-14  -0.1326774969E-14   0.2126965263E-14
   0.0000000000E+00   0.0000000000E+00   0.7291274411E+00   0.3027289030E+02   0.6987125712E-05   0.6987125712E-05  -0.5484199300E-16  -0.5797697760E-14  -0.1549397357E-14
   0.1900000000E+01   0.0000000000E+00   0.7291274411E+00   0.3027289030E+02   0.6987124696E-05   0.6987124694E-05  -0.3484140273E-14   0.1899839714E-14   0.9319799758E-15
   0.1900000000E+01   0.7291274411E+00   0.7291274411E+00   0.3027289029E+02   0.6987125131E-05   0.6987125135E-05  -0.4806745896E-14  -0.5206892463E-14   0.3262426840E-15
   0.0000000000E+00   0.7291274411E+00   0.7291274411E+00   0.3027289029E+02   0.6987125153E-05   0.6987125147E-05  -0.5288413369E-14   0.5929269702E-14   0.5407829989E-15
   0.3800000000E+01   0.0000000000E+00  -0.1657280818E-15   0.3027289030E+02   0.6987124402E-05   0.6987124409E-05   0.4814725871E-15  -0.6816508871E-14   0.4174040990E-14
   0.3800000000E+01   0.7291274411E+00   0.4174983674E-15   0.3027289029E+02   0.6987124565E-05   0.6987124558E-05   0.3745785866E-15   0.9722121942E-14   0.3770629198E-14
   0.3800000000E+01   0.0000000000E+00   0.7291274411E+00   0.3027289029E+02   0.6987125763E-05   0.6987125769E-05   0.3770119995E-15   0.9067368964E-14  -0.3296165217E-14
   0.3800000000E+01   0.7291274411E+00   0.7291274411E+00   0.3027289029E+02   0.6987124246E-05   0.6987124237E-05   0.2965372130E-14  -0.7887791213E-14  -0.3699577009E-14
     1     2     3     4     5     6     7     8
     2     9    10     3     6    11    12     7
 VARIABLES = X,Y,Z,S11,S22,S33,S12,S13,S23
 ZONE, T="0.7000D+01" F=FEPOINT, I=   12 J=    2 ET=BRICK
   0.0000000000E+00   0.0000000000E+00   0.0000000000E+00   0.3635078686E+02   0.3505348145E-05   0.3505348145E-05  -0.1868986316E-16   0.2384414180E-14   0.8767156347E-15
   0.2050000000E+01   0.0000000000E+00   0.1036017242E-15   0.3635078686E+02   0.3505348130E-05   0.3505348131E-05  -0.1833683614E-14  -0.1077395664E-14  -0.1656535027E-14
   0.2050000000E+01   0.7026489708E+00  -0.1392171405E-15   0.3635078685E+02   0.3505348828E-05   0.3505348830E-05  -0.1779980751E-14   0.3256517569E-14   0.6005132854E-15
   0.0000000000E+00   0.7026489708E+00   0.1295693883E-15   0.3635078685E+02   0.3505347965E-05   0.3505347965E-05  -0.7868930467E-14  -0.7998523215E-14  -0.3109405870E-15
   0.0000000000E+00   0.0000000000E+00   0.7026489708E+00   0.3635078685E+02   0.3505348502E-05   0.3505348500E-05   0.3354821245E-15  -0.1888126245E-15  -0.3506884589E-15
   0.2050000000E+01   0.0000000000E+00   0.7026489708E+00   0.3635078685E+02   0.3505348687E-05   0.3505348685E-05   0.1942549131E-14   0.2429140636E-15   0.3147028737E-15
   0.2050000000E+01   0.7026489708E+00   0.7026489708E+00   0.3635078685E+02   0.3505348589E-05   0.3505348589E-05   0.1417671078E-14   0.5951033959E-16   0.2571751186E-14
   0.0000000000E+00   0.7026489708E+00   0.7026489708E+00   0.3635078685E+02   0.3505348504E-05   0.3505348502E-05   0.8114533528E-14   0.3994338247E-14  -0.1538344680E-14
   0.4100000000E+01   0.0000000000E+00   0.2115253488E-16   0.3635078686E+02   0.3505348455E-05   0.3505348457E-05  -0.3450855387E-15  -0.3957303955E-14   0.1637777409E-14
   0.4100000000E+01   0.7026489708E+00   0.2635395904E-15   0.3635078685E+02   0.3505348426E-05   0.3505348425E-05   0.7612560789E-14   0.1137446528E-13  -0.1034290314E-15
   0.4100000000E+01   0.0000000000E+00   0.7026489708E+00   0.3635078685E+02   0.3505348960E-05   0.3505348963E-05  -0.7365426903E-15   0.1256542303E-14  -0.1591038380E-14
   0.4100000000E+01   0.7026489708E+00   0.7026489708E+00   0.3635078685E+02   0.3505348335E-05   0.3505348334E-05  -0.9565350197E-14  -0.7012410636E-14  -0.3332244820E-14
     1     2     3     4     5     6     7     8
     2     9    10     3     6    11    12     7
 VARIABLES = X,Y,Z,S11,S22,S33,S12,S13,S23
 ZONE, T="0.8000D+01" F=FEPOINT, I=   12 J=    2 ET=BRICK
   0.0000000000E+00   0.0000000000E+00   0.0000000000E+00   0.4276872275E+02   0.1852686985E-05   0.1852686983E-05  -0.3045190445E-15  -0.1695334729E-14  -0.1163058528E-15
   0.2200000000E+01   0.0000000000E+00  -0.6687003367E-16   0.4276872275E+02   0.1852688147E-05   0.1852688151E-05  -0.3614828377E-14  -0.2303126107E-14   0.4449348539E-15
   0.2200000000E+01   0.6789886336E+00   0.4204525125E-17   0.4276872274E+02   0.1852687270E-05   0.1852687268E-05  -0.3913964072E-14   0.4051465245E-14   0.1172000758E-14
   0.0000000000E+00   0.6789886336E+00  -0.1064010179E-16   0.4276872274E+02   0.1852687763E-05   0.1852687766E-05  -0.1454116766E-14  -0.5027632401E-15   0.1578487430E-15
   0.0000000000E+00   0.0000000000E+00   0.6789886336E+00   0.4276872274E+02   0.1852687117E-05   0.1852687115E-05  -0.4561641469E-15   0.3100461168E-14   0.4509959027E-15
   0.2200000000E+01   0.0000000000E+00   0.6789886336E+00   0.4276872274E+02   0.1852687883E-05   0.1852687887E-05   0.7631897931E-16   0.9098550100E-15  -0.1061731068E-14
   0.2200000000E+01   0.6789886336E+00   0.6789886336E+00   0.4276872274E+02   0.1852687006E-05   0.1852687005E-05   0.1206656303E-14   0.2618092569E-14  -0.3346651633E-15
   0.0000000000E+00   0.6789886336E+00   0.6789886336E+00   0.4276872274E+02   0.1852687895E-05   0.1852687898E-05   0.2032458647E-14  -0.4407257528E-14   0.7251504983E-15
   0.4400000000E+01   0.0000000000E+00  -0.8492900358E-16   0.4276872274E+02   0.1852687804E-05   0.1852687806E-05  -0.7966714937E-15   0.1842387063E-14   0.5900692881E-15
   0.4400000000E+01   0.6789886336E+00  -0.2051186327E-16   0.4276872274E+02   0.1852687993E-05   0.1852687997E-05  -0.2453451619E-15  -0.5195146718E-14   0.1516853130E-14
   0.4400000000E+01   0.0000000000E+00   0.6789886336E+00   0.4276872274E+02   0.1852687829E-05   0.1852687827E-05  -0.2209067848E-15   0.3472553399E-14  -0.1529406855E-14
   0.4400000000E+01   0.6789886336E+00   0.6789886336E+00   0.4276872273E+02   0.1852688018E-05   0.1852688017E-05  -0.4488549310E-15  -0.4157397782E-14  -0.6026230126E-15
     1     2     3     4     5     6     7     8
     2     9    10     3     6    11    12     7
 VARIABLES = X,Y,Z,S11,S22,S33,S12,S13,S23
 ZONE, T="0.9000D+01" F=FEPOINT, I=   12 J=    2 ET=BRICK
   0.0000000000E+00   0.0000000000E+00   0.0000000000E+00   0.4952909102E+02   0.1023565730E-05   0.1023565732E-05  -0.2474371276E-15   0.8008687111E-14   0.8459625843E-15
   0.2350000000E+01   0.0000000000E+00   0.1805627052E-15   0.4952909102E+02   0.1023564538E-05   0.1023564530E-05   0.4563605157E-14   0.6350926963E-15  -0.1830916381E-14
   0.2350000000E+01   0.6576908986E+00  -0.1058534034E-15   0.4952909101E+02   0.1023566583E-05   0.1023566589E-05   0.4322076315E-14  -0.3104576746E-15  -0.2321208064E-14
   0.0000000000E+00   0.6576908986E+00   0.1411234305E-15   0.4952909101E+02   0.1023565394E-05   0.1023565389E-05  -0.1122523648E-14  -0.9956029061E-14   0.5410638821E-15
   0.0000000000E+00   0.0000000000E+00   0.6576908986E+00   0.4952909101E+02   0.1023565982E-05   0.1023565987E-05  -0.6336854740E-16  -0.8437824463E-14  -0.4272526288E-15
   0.2350000000E+01   0.0000000000E+00   0.6576908986E+00   0.4952909101E+02   0.1023564401E-05   0.1023564396E-05  -0.4970615377E-14   0.5910890563E-14   0.1997762772E-14
   0.2350000000E+01   0.6576908986E+00   0.6576908986E+00   0.4952909101E+02   0.1023566117E-05   0.1023566125E-05  -0.4708521157E-14  -0.4328966176E-14   0.1507471088E-14
   0.0000000000E+00   0.6576908986E+00   0.6576908986E+00   0.4952909101E+02   0.1023564824E-05   0.1023564821E-05  -0.1669826385E-15   0.8959778813E-14  -0.7321513308E-15
   0.4700000000E+01   0.0000000000E+00  -0.3144952970E-15   0.4952909102E+02   0.1023567298E-05   0.1023567308E-05  -0.5024942079E-15  -0.1618727813E-13   0.4121395799E-14
   0.4700000000E+01   0.6576908986E+00   0.3154145375E-15   0.4952909101E+02   0.1023564216E-05   0.1023564205E-05  -0.1104653712E-15   0.1460297666E-13   0.3645513805E-14
   0.4700000000E+01   0.0000000000E+00   0.6576908986E+00   0.4952909101E+02   0.1023566771E-05   0.1023566784E-05   0.1356361844E-14   0.1081082917E-13  -0.2812665370E-14
   0.4700000000E+01   0.6576908986E+00   0.6576908986E+00   0.4952909101E+02   0.1023563854E-05   0.1023563845E-05   0.1984164375E-14  -0.1234984821E-13  -0.3288547363E-14
     1     2     3     4     5     6     7     8
     2     9    10     3     6    11    12     7
 VARIABLES = X,Y,Z,S11,S22,S33,S12,S13,S23
 ZONE, T="0.1000D+02" F=FEPOINT, I=   12 J=    2 ET=BRICK
   0.0000000000E+00   0.0000000000E+00   0.0000000000E+00   0.5663156280E+02   0.5874560969E-06   0.5874561024E-06   0.1398342937E-15   0.1207645750E-14   0.9911231413E-15
   0.2500000000E+01   0.0000000000E+00   0.2629688186E-16   0.5663156280E+02   0.5874556451E-06   0.5874556417E-06   0.2690567708E-14   0.1900491821E-15  -0.1307142373E-14
   0.2500000000E+01   0.6383971140E+00  -0.1767520782E-15   0.5663156279E+02   0.5874565016E-06   0.5874565034E-06   0.3699464912E-14   0.2022770302E-15  -0.1046683528E-14
   0.0000000000E+00   0.6383971140E+00   0.1400887112E-15   0.5663156280E+02   0.5874542236E-06   0.5874542185E-06   0.1505616395E-14  -0.1037527947E-13   0.2059888921E-14
   0.0000000000E+00   0.0000000000E+00   0.6383971140E+00   0.5663156280E+02   0.5874563888E-06   0.5874563907E-06  -0.4051222225E-15  -0.3645432073E-14  -0.2045851001E-14
   0.2500000000E+01   0.0000000000E+00   0.6383971140E+00   0.5663156279E+02   0.5874556712E-06   0.5874556683E-06   0.3953975013E-14  -0.4313836006E-15   0.1241168473E-14
   0.2500000000E+01   0.6383971140E+00   0.6383971140E+00   0.5663156279E+02   0.5874560588E-06   0.5874560610E-06   0.3740981298E-14   0.3697452203E-14   0.1501627317E-14
   0.0000000000E+00   0.6383971140E+00   0.6383971140E+00   0.5663156279E+02   0.5874555365E-06   0.5874555279E-06  -0.4503060788E-15   0.1057913872E-13  -0.9770852211E-15
   0.5000000000E+01   0.0000000000E+00  -0.2562172962E-16   0.5663156280E+02   0.5874558217E-06   0.5874558208E-06  -0.1941560014E-14  -0.3236057386E-14  -0.1728703617E-15
   0.5000000000E+01   0.6383971140E+00  -0.4767562723E-16   0.5663156279E+02   0.5874557309E-06   0.5874557283E-06  -0.1289547708E-14   0.5106420412E-14  -0.1226818915E-16
   0.5000000000E+01   0.0000000000E+00   0.6383971140E+00   0.5663156279E+02   0.5874560207E-06   0.5874560196E-06  -0.1361802862E-14   0.3741548718E-15  -0.3906662394E-15
   0.5000000000E+01   0.6383971140E+00   0.6383971140E+00   0.5663156279E+02   0.5874551602E-06   0.5874551574E-06  -0.1742606434E-14  -0.8857647432E-14  -0.2300640669E-15
     1     2     3     4     5     6     7     8
     2     9    10     3     6    11    12     7
 VARIABLES = X,Y,Z,S11,S22,S33,S12,S13,S23
 ZONE, T="0.1100D+02" F=FEPOINT, I=   12 J=    2 ET=BRICK
   0.0000000000E+00   0.0000000000E+00   0.0000000000E+00   0.5663156229E+02   0.2157760663E-07   0.2157761222E-07   0.3467415945E-15  -0.5922055167E-14  -0.1064255905E-14
   0.2500000000E+01   0.0000000000E+00  -0.1515963402E-15   0.5663156229E+02   0.2157822212E-07   0.2157821553E-07  -0.4886297420E-15  -0.2711584282E-14   0.7805038996E-15
   0.2500000000E+01   0.6383971138E+00  -0.4177372333E-16   0.5663156228E+02   0.2157856335E-07   0.2157856312E-07  -0.3241658644E-15   0.3792590034E-14  -0.1689217951E-14
   0.0000000000E+00   0.6383971138E+00  -0.1685448367E-15   0.5663156228E+02   0.2157730297E-07   0.2157730686E-07   0.1607492077E-13   0.2186266216E-14   0.2431497633E-14
   0.0000000000E+00   0.0000000000E+00   0.6383971138E+00   0.5663156228E+02   0.2157824889E-07   0.2157824285E-07  -0.1851042831E-16  -0.1415382144E-14  -0.1209337191E-14
   0.2500000000E+01   0.0000000000E+00   0.6383971138E+00   0.5663156228E+02   0.2157664476E-07   0.2157664675E-07   0.3744665501E-14  -0.4742296329E-14   0.4548008596E-15
   0.2500000000E+01   0.6383971138E+00   0.6383971138E+00   0.5663156227E+02   0.2157792404E-07   0.2157793240E-07  -0.6064420071E-15   0.1538534824E-14  -0.2014920991E-14
   0.0000000000E+00   0.6383971138E+00   0.6383971138E+00   0.5663156228E+02   0.2157869812E-07   0.2157869037E-07  -0.1609856596E-13   0.7755805128E-14   0.2286416346E-14
   0.5000000000E+01   0.0000000000E+00   0.1305516710E-15   0.5663156229E+02   0.2157665776E-07   0.2157666236E-07   0.9875003498E-16   0.9249880377E-14   0.1031196529E-15
   0.5000000000E+01   0.6383971138E+00   0.1376373919E-15   0.5663156228E+02   0.2157677855E-07   0.2157678144E-07  -0.1530050139E-13   0.3623570143E-14   0.8960791175E-15
   0.5000000000E+01   0.0000000000E+00   0.6383971138E+00   0.5663156228E+02   0.2157888185E-07   0.2157887812E-07  -0.2111004366E-14   0.6817832588E-15  -0.5190944830E-15
   0.5000000000E+01   0.6383971138E+00   0.6383971138E+00   0.5663156227E+02   0.2157774705E-07   0.2157774161E-07   0.5266836154E-14  -0.6454079187E-14   0.2738649816E-15
     1     2     3     4     5     6     7     8
     2     9    10     3     6    11    12     7
 VARIABLES = X,Y,Z,S11,S22,S33,S12,S13,S23
 ZONE, T="0.1200D+02" F=FEPOINT, I=   12 J=    2 ET=BRICK
   0.0000000000E+00   0.0000000000E+00   0.0000000000E+00   0.5663156227E+02  -0.2272949796E-12  -0.2266315594E-12  -0.1655382693E-15  -0.1510071667E-14  -0.4585382064E-15
   0.2500000000E+01   0.0000000000E+00  -0.5701099631E-16   0.5663156227E+02   0.5148432554E-12   0.5123673374E-12   0.1078934479E-15  -0.1767800933E-14   0.1056056534E-14
   0.2500000000E+01   0.6383971138E+00   0.1135042681E-15   0.5663156226E+02  -0.2241241894E-12  -0.2291448350E-12   0.1629768133E-14   0.1435589037E-14  -0.2259500857E-14
   0.0000000000E+00   0.6383971138E+00  -0.8675702807E-16   0.5663156226E+02  -0.2928927516E-13  -0.2794399741E-13   0.1743753447E-13   0.6658144759E-14   0.2147608606E-14
   0.0000000000E+00   0.0000000000E+00   0.6383971138E+00   0.5663156226E+02  -0.2837866532E-13  -0.2873913136E-13   0.2814081483E-15  -0.7305210191E-14  -0.7124611492E-15
   0.2500000000E+01   0.0000000000E+00   0.6383971138E+00   0.5663156226E+02  -0.2275226320E-12  -0.2261773543E-12  -0.6374751777E-15   0.5568799579E-15   0.7301093990E-15
   0.2500000000E+01   0.6383971138E+00   0.6383971138E+00   0.5663156225E+02  -0.2843966449E-13  -0.2963911431E-13  -0.4220994911E-15  -0.1915799179E-14  -0.2585447991E-14
   0.0000000000E+00   0.6383971138E+00   0.6383971138E+00   0.5663156226E+02  -0.8172277876E-13  -0.8140138720E-13  -0.1895842707E-13   0.2545161308E-14   0.1893685663E-14
   0.5000000000E+01   0.0000000000E+00  -0.1292413287E-15   0.5663156227E+02  -0.2272949795E-12  -0.2266315594E-12  -0.1214882799E-14  -0.3012179699E-14   0.1311190790E-14
   0.5000000000E+01   0.6383971138E+00   0.6436917941E-16   0.5663156226E+02  -0.2928927516E-13  -0.2794399740E-13  -0.1577420616E-13  -0.3518174515E-14   0.3593644335E-14
   0.5000000000E+01   0.0000000000E+00   0.6383971138E+00   0.5663156226E+02  -0.2837866532E-13  -0.2873913136E-13  -0.1124235657E-14   0.7432320605E-14  -0.1720912271E-14
   0.5000000000E+01   0.6383971138E+00   0.6383971138E+00   0.5663156225E+02  -0.8172277876E-13  -0.8140138719E-13   0.1854635093E-13  -0.6107967497E-14   0.5615412741E-15
     1     2     3     4     5     6     7     8
     2     9    10     3     6    11    12     7
 VARIABLES = X,Y,Z,S11,S22,S33,S12,S13,S23
 ZONE, T="0.1300D+02" F=FEPOINT, I=   12 J=    2 ET=BRICK
   0.0000000000E+00   0.0000000000E+00   0.0000000000E+00   0.5663156227E+02  -0.2442392787E-12  -0.2451880671E-12  -0.4615386819E-15   0.8101487765E-14   0.1735891855E-14
   0.2500000000E+01   0.0000000000E+00   0.2423199632E-15   0.5663156227E+02  -0.3740333989E-12  -0.3741588224E-12  -0.5350745128E-15   0.6708161673E-15  -0.1495769259E-14
   0.2500000000E+01   0.6383971138E+00  -0.1638798399E-16   0.5663156226E+02  -0.1062138895E-13  -0.6165195950E-14  -0.1261712269E-14   0.1602620537E-14  -0.1753317829E-14
   0.0000000000E+00   0.6383971138E+00   0.2803468872E-15   0.5663156226E+02  -0.3405678549E-12  -0.3445340324E-12  -0.2386768295E-14  -0.1077653340E-13   0.2924299956E-15
   0.0000000000E+00   0.0000000000E+00   0.6383971138E+00   0.5663156226E+02  -0.7443730010E-12  -0.7395527664E-12   0.2207660555E-15  -0.5655615502E-14  -0.1922338150E-15
   0.2500000000E+01   0.0000000000E+00   0.6383971138E+00   0.5663156226E+02  -0.4002509018E-12  -0.4008882684E-12   0.1986343527E-14   0.7999289938E-15   0.1885869610E-14
   0.2500000000E+01   0.6383971138E+00   0.6383971138E+00   0.5663156225E+02   0.8883957151E-13   0.9278382141E-13   0.4488236784E-14   0.2466973879E-14   0.1628321040E-14
   0.0000000000E+00   0.6383971138E+00   0.6383971138E+00   0.5663156226E+02  -0.7116946839E-12  -0.7098918385E-12   0.1453868614E-14   0.6104278611E-14  -0.1635695674E-14
   0.5000000000E+01   0.0000000000E+00   0.1162347909E-15   0.5663156227E+02  -0.5555819858E-12  -0.5560650566E-12  -0.4775064241E-15  -0.6599575347E-14   0.3886941522E-15
   0.5000000000E+01   0.6383971138E+00   0.1817102953E-15   0.5663156226E+02   0.5216076845E-12   0.5252335686E-12  -0.5552323970E-17   0.6830301887E-14   0.6968857823E-15
   0.5000000000E+01   0.0000000000E+00   0.6383971138E+00   0.5663156226E+02   0.1402366640E-12   0.1378057658E-12  -0.1882949471E-14   0.7415753571E-14  -0.7146746898E-15
   0.5000000000E+01   0.6383971138E+00   0.6383971138E+00   0.5663156225E+02   0.1503671239E-12   0.1520451807E-12   0.1887734485E-14  -0.8321803438E-14  -0.4064830597E-15
     1     2     3     4     5     6     7     8
     2     9    10     3     6    11    12     7
 VARIABLES = X,Y,Z,S11,S22,S33,S12,S13,S23
 ZONE, T="0.1400D+02" F=FEPOINT, I=   12 J=    2 ET=BRICK
   0.0000000000E+00   0.0000000000E+00   0.0000000000E+00   0.5663156227E+02   0.5479220416E-12   0.5502551593E-12  -0.2812256229E-15   0.4203079282E-14   0.1837988703E-14
   0.2500000000E+01   0.0000000000E+00   0.1140206946E-15   0.5663156227E+02  -0.3724402844E-12  -0.3726019637E-12   0.2726599118E-14   0.2170185480E-14  -0.3591696994E-15
   0.2500000000E+01   0.6383971138E+00   0.5056387202E-16   0.5663156226E+02   0.4212393406E-13   0.4599808840E-13   0.4347966192E-14   0.1506553428E-14  -0.1208589955E-15
   0.0000000000E+00   0.6383971138E+00   0.2998697228E-15   0.5663156226E+02  -0.1210889188E-12  -0.1262867693E-12  -0.4456817294E-14  -0.6672913539E-14   0.1697529889E-15
   0.0000000000E+00   0.0000000000E+00   0.6383971138E+00   0.5663156226E+02   0.7727297229E-14   0.1616653732E-13  -0.3979109050E-15  -0.4846968894E-14  -0.3169284766E-15
   0.2500000000E+01   0.0000000000E+00   0.6383971138E+00   0.5663156226E+02  -0.2265275034E-12  -0.2278824335E-12   0.7552780134E-14  -0.3367918000E-15   0.4188393859E-15
   0.2500000000E+01   0.6383971138E+00   0.6383971138E+00   0.5663156225E+02  -0.1553171367E-12  -0.1526362332E-12   0.8440569295E-14   0.5946921676E-14   0.6571500896E-15
   0.0000000000E+00   0.6383971138E+00   0.6383971138E+00   0.5663156226E+02  -0.5154376402E-12  -0.5145293683E-12   0.3733329634E-14  -0.2196137321E-14  -0.1985164191E-14
   0.5000000000E+01   0.0000000000E+00  -0.3132527402E-16   0.5663156227E+02  -0.6313637899E-13  -0.6383342962E-13  -0.1666605647E-14  -0.7148080160E-14  -0.7798729189E-16
   0.5000000000E+01   0.6383971138E+00  -0.6649692083E-16   0.5663156226E+02   0.6698103588E-13   0.6574328628E-13   0.5751720173E-14  -0.2571554594E-14  -0.1655269420E-14
   0.5000000000E+01   0.0000000000E+00   0.6383971138E+00   0.5663156226E+02   0.7465619856E-13   0.7675957210E-13  -0.1249466611E-14  -0.3111986543E-14   0.1392777190E-14
   0.5000000000E+01   0.6383971138E+00   0.6383971138E+00   0.5663156225E+02  -0.6277710989E-12  -0.6262084243E-12  -0.3605128826E-14   0.1832405686E-14  -0.1845049378E-15
     1     2     3     4     5     6     7     8
     2     9    10     3     6    11    12     7
 VARIABLES = X,Y,Z,S11,S22,S33,S12,S13,S23
 ZONE, T="0.1500D+02" F=FEPOINT, I=   12 J=    2 ET=BRICK
   0.0000000000E+00   0.0000000000E+00   0.0000000000E+00   0.5663156227E+02  -0.8964699106E-12  -0.9051477029E-12   0.9792139746E-16  -0.8616852726E-14  -0.1886923905E-14
   0.2500000000E+01   0.0000000000E+00  -0.2304605609E-15   0.5663156227E+02   0.5767865217E-12   0.5818800811E-12  -0.4811094840E-14  -0.8360988334E-14   0.1169665162E-14
   0.2500000000E+01   0.6383971138E+00  -0.6578990288E-16   0.5663156226E+02  -0.3245033461E-12  -0.3286752545E-12  -0.4031469798E-14   0.5521603325E-14  -0.8941322223E-15
   0.0000000000E+00   0.6383971138E+00  -0.2941836476E-15   0.5663156226E+02  -0.1721945354E-12  -0.1655888094E-12   0.1036711566E-13   0.7616383132E-14   0.7997126884E-15
   0.0000000000E+00   0.0000000000E+00   0.6383971138E+00   0.5663156226E+02  -0.1317430073E-11  -0.1330479736E-11  -0.1210839597E-15   0.7370427614E-14   0.1008020911E-14
   0.2500000000E+01   0.0000000000E+00   0.6383971138E+00   0.5663156226E+02   0.3527223772E-12   0.3599411723E-12   0.7412862389E-14  -0.7378644531E-14  -0.1490355890E-15
   0.2500000000E+01   0.6383971138E+00   0.6383971138E+00   0.5663156225E+02  -0.5485655856E-12  -0.5506122583E-12   0.4325270098E-14   0.4655870209E-14  -0.2212832973E-14
   0.0000000000E+00   0.6383971138E+00   0.6383971138E+00   0.5663156226E+02   0.1415290469E-11   0.1417524324E-11  -0.1345625048E-13  -0.2182033948E-14   0.3694657504E-14
   0.5000000000E+01   0.0000000000E+00   0.9061581730E-16   0.5663156227E+02  -0.2169339236E-11  -0.2175938018E-11   0.2661656116E-15   0.1224259964E-13  -0.1697507521E-14
   0.5000000000E+01   0.6383971138E+00  -0.1736131666E-15   0.5663156226E+02   0.9620439951E-13   0.9937608421E-13  -0.8443778571E-14  -0.5993258012E-14  -0.8255551386E-15
   0.5000000000E+01   0.0000000000E+00   0.6383971138E+00   0.5663156226E+02  -0.1288609275E-12  -0.1381356202E-12  -0.2258422555E-14  -0.1779993092E-14   0.6627607448E-15
   0.5000000000E+01   0.6383971138E+00   0.6383971138E+00   0.5663156225E+02   0.1282233230E-12   0.1287190972E-12   0.4901559385E-14   0.2073692836E-14   0.1534713127E-14
     1     2     3     4     5     6     7     8
     2     9    10     3     6    11    12     7
 VARIABLES = X,Y,Z,S11,S22,S33,S12,S13,S23
 ZONE, T="0.1600D+02" F=FEPOINT, I=   12 J=    2 ET=BRICK
   0.0000000000E+00   0.0000000000E+00   0.0000000000E+00   0.5663156227E+02   0.4094027902E-12   0.4094906747E-12   0.5883908770E-15   0.5615794023E-14  -0.7381890410E-15
   0.2500000000E+01   0.0000000000E+00   0.1181215019E-15   0.5663156227E+02  -0.1030867150E-11  -0.1035019189E-11  -0.1047269067E-13  -0.5439687688E-14  -0.7275259839E-15
   0.2500000000E+01   0.6383971138E+00   0.7682942318E-17   0.5663156226E+02  -0.1693694092E-12  -0.1672340874E-12  -0.1288999640E-13   0.1097518954E-13  -0.2996391031E-15
   0.0000000000E+00   0.6383971138E+00  -0.1520559220E-15   0.5663156226E+02  -0.7047150898E-12  -0.7029892705E-12  -0.6682940679E-14   0.4173557608E-14  -0.2480819974E-14
   0.0000000000E+00   0.0000000000E+00   0.6383971138E+00   0.5663156226E+02   0.2059854449E-12   0.2084462915E-12  -0.9287380589E-15  -0.3582139394E-14   0.2314542922E-14
   0.2500000000E+01   0.0000000000E+00   0.6383971138E+00   0.5663156226E+02  -0.1127028397E-11  -0.1131521364E-11   0.2466064669E-15   0.2387237793E-15   0.6364400003E-15
   0.2500000000E+01   0.6383971138E+00   0.6383971138E+00   0.5663156225E+02   0.1905839576E-12   0.1923783505E-12   0.1428407749E-14   0.8897117974E-15   0.1064326881E-14
   0.0000000000E+00   0.6383971138E+00   0.6383971138E+00   0.5663156226E+02   0.4696482660E-13   0.5106976469E-13   0.3974934391E-14  -0.1116206402E-13   0.5719119893E-15
   0.5000000000E+01   0.0000000000E+00  -0.2012677095E-15   0.5663156227E+02   0.1790049462E-12   0.1871660272E-12   0.7295824112E-15  -0.1087639739E-13   0.1921423100E-14
   0.5000000000E+01   0.6383971138E+00   0.8734379043E-16   0.5663156226E+02  -0.1579716829E-12  -0.1630888176E-12   0.3166302505E-14  -0.1316228521E-14   0.1728734402E-14
   0.5000000000E+01   0.0000000000E+00   0.6383971138E+00   0.5663156226E+02   0.4393021982E-12   0.4476350447E-12  -0.2536272291E-15   0.9678358957E-14  -0.2389372748E-14
   0.5000000000E+01   0.6383971138E+00   0.6383971138E+00   0.5663156225E+02  -0.1129951709E-11  -0.1134903235E-11  -0.2793697115E-14  -0.6151562362E-14  -0.2582061446E-14
     1     2     3     4     5     6     7     8
     2     9    10     3     6    11    12     7
 VARIABLES = X,Y,Z,S11,S22,S33,S12,S13,S23
 ZONE, T="0.1700D+02" F=FEPOINT, I=   12 J=    2 ET=BRICK
   0.0000000000E+00   0.0000000000E+00   0.0000000000E+00   0.5663156227E+02  -0.2082235032E-12  -0.2031932052E-12  -0.4420974285E-16  -0.5070509613E-14   0.4964948553E-15
   0.2500000000E+01   0.0000000000E+00  -0.9122138491E-16   0.5663156227E+02   0.2007057416E-12   0.2004902365E-12   0.4028511148E-14   0.5284240435E-14   0.1340467288E-14
   0.2500000000E+01   0.6383971138E+00   0.1219728517E-15   0.5663156226E+02   0.7486036823E-13   0.7515680628E-13   0.2562734645E-14  -0.3506912776E-14  -0.2887768705E-15
   0.0000000000E+00   0.6383971138E+00   0.5855791059E-16   0.5663156226E+02  -0.1439036944E-12  -0.1433253322E-12   0.9813068331E-14   0.3233262321E-14   0.8414371178E-15
   0.0000000000E+00   0.0000000000E+00   0.6383971138E+00   0.5663156226E+02   0.5334898206E-12   0.5356737438E-12  -0.3481551828E-15   0.7032999976E-15  -0.7749613039E-15
   0.2500000000E+01   0.0000000000E+00   0.6383971138E+00   0.5663156226E+02  -0.3425211548E-12  -0.3402704954E-12  -0.4250094309E-15  -0.3555421870E-15  -0.6216362569E-15
   0.2500000000E+01   0.6383971138E+00   0.6383971138E+00   0.5663156225E+02   0.1263335869E-12   0.1290961895E-12   0.2454707203E-14   0.1033245288E-14  -0.2250880415E-14
   0.0000000000E+00   0.6383971138E+00   0.6383971138E+00   0.5663156226E+02  -0.2942405558E-12  -0.2965085685E-12  -0.6004728835E-14   0.1955967831E-14  -0.4300190413E-15
   0.5000000000E+01   0.0000000000E+00   0.2895462200E-15   0.5663156227E+02  -0.3332837511E-12  -0.3309259741E-12  -0.7371404055E-15   0.1058821457E-13  -0.2663712324E-14
   0.5000000000E+01   0.6383971138E+00  -0.1163895841E-15   0.5663156226E+02  -0.1449813783E-12  -0.1419928612E-12  -0.1352597148E-13  -0.8109139370E-14   0.4945363629E-15
   0.5000000000E+01   0.0000000000E+00   0.6383971138E+00   0.5663156226E+02   0.4110303069E-12   0.4066419502E-12  -0.1120992851E-14  -0.6465160285E-14   0.9367810046E-15
   0.5000000000E+01   0.6383971138E+00   0.6383971138E+00   0.5663156225E+02   0.3019826348E-12   0.2982250182E-12   0.1029501407E-13   0.2248471248E-14   0.4095029690E-14
     1     2     3     4     5     6     7     8
     2     9    10     3     6    11    12     7
 VARIABLES = X,Y,Z,S11,S22,S33,S12,S13,S23
 ZONE, T="0.1800D+02" F=FEPOINT, I=   12 J=    2 ET=BRICK
   0.0000000000E+00   0.0000000000E+00   0.0000000000E+00   0.5663156227E+02  -0.4131988725E-12  -0.4100255131E-12  -0.8269180222E-15   0.1738456727E-14   0.1370235443E-14
   0.2500000000E+01   0.0000000000E+00   0.3323098407E-16   0.5663156227E+02  -0.1672265699E-12  -0.1698794837E-12   0.3120445886E-14   0.9085082285E-15  -0.2025035732E-15
   0.2500000000E+01   0.6383971138E+00   0.2649126279E-18   0.5663156226E+02   0.4252418852E-13   0.4326887412E-13   0.3722488896E-14  -0.7440630894E-15  -0.1031060797E-14
   0.0000000000E+00   0.6383971138E+00   0.2225651373E-15   0.5663156226E+02  -0.7084810864E-12  -0.7119290720E-12   0.3680426836E-14  -0.7536025594E-14   0.6630075540E-15
   0.0000000000E+00   0.0000000000E+00   0.6383971138E+00   0.5663156226E+02   0.4090987117E-12   0.4117606779E-12   0.1673097595E-15  -0.3674758721E-14  -0.5895936221E-15
   0.2500000000E+01   0.0000000000E+00   0.6383971138E+00   0.5663156226E+02  -0.5719520711E-12  -0.5724011862E-12   0.4838092323E-15   0.5473938945E-15   0.4478568040E-15
   0.2500000000E+01   0.6383971138E+00   0.6383971138E+00   0.5663156225E+02   0.2411091010E-12   0.2440575854E-12  -0.8695550119E-15   0.1546922562E-14  -0.3807004201E-15
   0.0000000000E+00   0.6383971138E+00   0.6383971138E+00   0.5663156226E+02  -0.9743833090E-12  -0.9783426879E-12   0.6482891472E-15   0.5646216806E-14  -0.1296821511E-14
   0.5000000000E+01   0.0000000000E+00  -0.1089871653E-15   0.5663156227E+02   0.1142887454E-12   0.1132866148E-12  -0.1740763881E-14  -0.6291780091E-14   0.1515698479E-14
   0.5000000000E+01   0.6383971138E+00   0.1151731496E-15   0.5663156226E+02  -0.3678399540E-13  -0.3889441953E-13  -0.5044022718E-14   0.3554836464E-14   0.4336320260E-15
   0.5000000000E+01   0.0000000000E+00   0.6383971138E+00   0.5663156226E+02  -0.3259102891E-12  -0.3252200142E-12  -0.1039431539E-14  -0.1600793311E-14   0.1851748458E-15
   0.5000000000E+01   0.6383971138E+00   0.6383971138E+00   0.5663156225E+02  -0.5609628555E-12  -0.5613808741E-12  -0.4227139414E-14  -0.5045434633E-14  -0.8968916065E-15
     1     2     3     4     5     6     7     8
     2     9    10     3     6    11    12     7
 VARIABLES = X,Y,Z,S11,S22,S33,S12,S13,S23
 ZONE, T="0.1900D+02" F=FEPOINT, I=   12 J=    2 ET=BRICK
   0.0000000000E+00   0.0000000000E+00   0.0000000000E+00   0.5663156227E+02  -0.1741020394E-12  -0.1730494728E-12  -0.9452278931E-18   0.6662023310E-14  -0.1248856148E-15
   0.2500000000E+01   0.0000000000E+00   0.1810126338E-15   0.5663156227E+02  -0.5764454188E-12  -0.5767771288E-12   0.2713445975E-14   0.1393767940E-15  -0.1859104831E-14
   0.2500000000E+01   0.6383971138E+00  -0.1081277042E-15   0.5663156226E+02  -0.4062603460E-12  -0.4021367307E-12   0.3236874234E-14  -0.1596584059E-14  -0.8970637456E-15
   0.0000000000E+00   0.6383971138E+00   0.4643685426E-17   0.5663156226E+02   0.4866211236E-12   0.4860365337E-12  -0.1667651507E-14  -0.4326731400E-14   0.1472261719E-14
   0.0000000000E+00   0.0000000000E+00   0.6383971138E+00   0.5663156226E+02   0.3673488389E-12   0.3657570905E-12  -0.1735319498E-16  -0.4890604418E-14  -0.1003401710E-14
   0.2500000000E+01   0.0000000000E+00   0.6383971138E+00   0.5663156226E+02  -0.1311243954E-12  -0.1357404167E-12   0.1625642993E-14  -0.5806190372E-15   0.9517974335E-15
   0.2500000000E+01   0.6383971138E+00   0.6383971138E+00   0.5663156225E+02   0.5080913427E-12   0.5079306469E-12  -0.7721242991E-15   0.9493289280E-15   0.1913838518E-14
   0.0000000000E+00   0.6383971138E+00   0.6383971138E+00   0.5663156226E+02   0.6999752878E-14   0.3770847963E-14  -0.2289155063E-14   0.5018559181E-14   0.5937456234E-15
   0.5000000000E+01   0.0000000000E+00   0.4456876205E-17   0.5663156227E+02   0.5937141837E-12   0.5951375351E-12  -0.5655214882E-15  -0.7268845344E-14  -0.1534011651E-15
   0.5000000000E+01   0.6383971138E+00   0.6640179516E-17   0.5663156226E+02  -0.1582004647E-12  -0.1575275582E-12   0.2148041309E-14   0.4039220229E-14  -0.4862336327E-15
   0.5000000000E+01   0.0000000000E+00   0.6383971138E+00   0.5663156226E+02  -0.1855882707E-12  -0.1804094711E-12  -0.1509784048E-14   0.2843790720E-14   0.3435999235E-15
   0.5000000000E+01   0.6383971138E+00   0.6383971138E+00   0.5663156225E+02  -0.1677966109E-12  -0.1633682561E-12  -0.4033516764E-14  -0.2142443771E-15   0.1076745588E-16
     1     2     3     4     5     6     7     8
     2     9    10     3     6    11    12     7
 VARIABLES = X,Y,Z,S11,S22,S33,S12,S13,S23
 ZONE, T="0.2000D+02" F=FEPOINT, I=   12 J=    2 ET=BRICK
   0.0000000000E+00   0.0000000000E+00   0.0000000000E+00   0.5663156227E+02   0.1048097528E-11   0.1051239141E-11  -0.4394103784E-16   0.2738221051E-14   0.8172050458E-15
   0.2500000000E+01   0.0000000000E+00   0.9056488776E-16   0.5663156227E+02  -0.5922787786E-12  -0.5908549378E-12  -0.5251175209E-15   0.9348876961E-15   0.4917708116E-15
   0.2500000000E+01   0.6383971138E+00   0.1847281534E-15   0.5663156226E+02  -0.2756290300E-12  -0.2737718091E-12   0.3501689503E-15  -0.1541380242E-14   0.2845522473E-14
   0.0000000000E+00   0.6383971138E+00   0.1050227770E-15   0.5663156226E+02  -0.3232306051E-12  -0.3264092400E-12  -0.1143455865E-13   0.2737201655E-14  -0.1263635505E-14
   0.0000000000E+00   0.0000000000E+00   0.6383971138E+00   0.5663156226E+02   0.9697433510E-13   0.1011855098E-12  -0.5509078442E-15   0.4255277007E-14   0.1196309509E-15
   0.2500000000E+01   0.0000000000E+00   0.6383971138E+00   0.5663156226E+02   0.3226113405E-12   0.3189416218E-12  -0.5197509870E-15  -0.1115654083E-15  -0.1645164705E-14
   0.2500000000E+01   0.6383971138E+00   0.6383971138E+00   0.5663156225E+02   0.1702339781E-12   0.1669976394E-12  -0.7165979033E-15  -0.1637747421E-14   0.7085869569E-15
   0.0000000000E+00   0.6383971138E+00   0.6383971138E+00   0.5663156226E+02  -0.2532833263E-12  -0.2553923992E-12   0.9854260610E-14  -0.6271966416E-14  -0.1961209600E-14
   0.5000000000E+01   0.0000000000E+00   0.1134322318E-15   0.5663156227E+02   0.2791957016E-12   0.2798362101E-12   0.2271358972E-15  -0.1144847327E-14   0.3209312451E-15
   0.5000000000E+01   0.6383971138E+00   0.1638393538E-15   0.5663156226E+02  -0.2333863909E-13  -0.2842787201E-13   0.1336832645E-13  -0.1200392884E-14  -0.1127611006E-14
   0.5000000000E+01   0.0000000000E+00   0.6383971138E+00   0.5663156226E+02   0.7400204126E-12   0.7423209892E-12  -0.7999361435E-15  -0.4754809491E-14  -0.1852258594E-15
   0.5000000000E+01   0.6383971138E+00   0.6383971138E+00   0.5663156225E+02  -0.3322203638E-12  -0.3356495287E-12  -0.1159879843E-13   0.7616040826E-14  -0.1633768110E-14
     1     2     3     4     5     6     7     8
     2     9    10     3     6    11    12     7
