 VARIABLES = X,Y,Z,S11,S22,S33,S12,S13,S23
 ZONE, T="0.1000D+01" F=FEPOINT, I=   12 J=    2 ET=BRICK
   0.0000000000E+00   0.0000000000E+00   0.0000000000E+00   0.3027288371E+02   0.1743684794E-07   0.1743685662E-07  -0.5284252622E-15   0.6102523407E-14   0.1194610370E-14
   0.1900000000E+01  -0.2433611677E-16   0.2149978995E-15   0.3027288371E+02   0.1743604378E-07   0.1743603984E-07   0.4103072264E-14   0.3087949683E-14  -0.1256435532E-14
   0.1900000000E+01   0.7291274386E+00  -0.8685633930E-17   0.3027288370E+02   0.1743705014E-07   0.1743705155E-07   0.6176925763E-14  -0.4739664749E-14  -0.4743690543E-15
   0.0000000000E+00   0.7291274386E+00   0.0000000000E+00   0.3027288370E+02   0.1743637841E-07   0.1743637607E-07   0.2962152567E-14  -0.1329875097E-14   0.1522829212E-14
   0.0000000000E+00   0.1765178965E-15   0.7291274386E+00   0.3027288370E+02   0.1743767231E-07   0.1743768104E-07  -0.4565754019E-14  -0.7368215104E-14  -0.2675865359E-14
   0.1900000000E+01   0.1755086305E-16   0.7291274386E+00   0.3027288370E+02   0.1743630779E-07   0.1743630255E-07  -0.6583976654E-14   0.3162736537E-14   0.6956803401E-16
   0.1900000000E+01   0.7291274386E+00   0.7291274386E+00   0.3027288370E+02   0.1743698209E-07   0.1743698220E-07  -0.7734087173E-14  -0.5425240944E-14   0.8516345119E-15
   0.0000000000E+00   0.7291274386E+00   0.7291274386E+00   0.3027288370E+02   0.1743558457E-07   0.1743558228E-07   0.1729661026E-14   0.6220614794E-14  -0.2347646517E-14
   0.3800000000E+01  -0.2503750051E-16  -0.7796122250E-16   0.3027288371E+02   0.1743672778E-07   0.1743673634E-07  -0.7788214904E-16  -0.8419727023E-14   0.3856282249E-14
   0.3800000000E+01   0.7291274386E+00   0.2566007742E-15   0.3027288370E+02   0.1743583483E-07   0.1743583236E-07   0.5792470210E-15   0.7169148751E-14   0.1858188006E-14
   0.3800000000E+01   0.1790924408E-15   0.7291274386E+00   0.3027288370E+02   0.1743642924E-07   0.1743643844E-07   0.5053702638E-14   0.5200585195E-14  -0.1027394001E-14
   0.3800000000E+01   0.7291274386E+00   0.7291274386E+00   0.3027288370E+02   0.1743649038E-07   0.1743648855E-07  -0.3541933446E-14  -0.1752493530E-14  -0.3025488243E-14
     1     2     3     4     5     6     7     8
     2     9    10     3     6    11    12     7
 VARIABLES = X,Y,Z,S11,S22,S33,S12,S13,S23
 ZONE, T="0.2000D+01" F=FEPOINT, I=   12 J=    2 ET=BRICK
   0.0000000000E+00   0.0000000000E+00   0.0000000000E+00   0.2953205473E+02   0.7408289917E+00   0.1739215010E-07   0.4677414008E+01   0.4255974208E-05   0.6740798786E-06
   0.1876607869E+01   0.2972253444E+00   0.1537452507E-06   0.2953201933E+02   0.7407981846E+00  -0.4040598517E-04   0.4677417414E+01   0.3439490861E-13  -0.2123039504E-12
   0.1762547164E+01   0.1017376293E+01   0.1537452502E-06   0.2953201933E+02   0.7407981845E+00  -0.4040598382E-04   0.4677417414E+01  -0.3645132176E-13   0.2077653470E-12
  -0.1140606608E+00   0.7201506699E+00   0.0000000000E+00   0.2953205229E+02   0.7408314327E+00   0.1753253315E-07   0.4677421520E+01   0.4255974125E-05   0.6740802970E-06
  -0.2761348272E-16   0.1743446683E-15   0.7291274386E+00   0.2953205473E+02   0.7408289916E+00   0.1739306528E-07   0.4677414008E+01  -0.4255974205E-05  -0.6740798797E-06
   0.1876607869E+01   0.2972253444E+00   0.7291272848E+00   0.2953201933E+02   0.7407981845E+00  -0.4040598590E-04   0.4677417414E+01  -0.3307161210E-13   0.2129724452E-12
   0.1762547164E+01   0.1017376293E+01   0.7291272848E+00   0.2953201932E+02   0.7407981844E+00  -0.4040598447E-04   0.4677417413E+01   0.2951159608E-13  -0.2086764452E-12
  -0.1140606608E+00   0.7201506699E+00   0.7291274386E+00   0.2953205229E+02   0.7408314326E+00   0.1753242018E-07   0.4677421520E+01  -0.4255974122E-05  -0.6740802978E-06
   0.3753215694E+01   0.5944509672E+00  -0.7796122250E-16   0.2953205229E+02   0.7408314327E+00   0.1753419628E-07   0.4677421520E+01  -0.4255974144E-05  -0.6740802941E-06
   0.3639155033E+01   0.1314601637E+01   0.2566007742E-15   0.2953205473E+02   0.7408289916E+00   0.1739055906E-07   0.4677414007E+01  -0.4255974183E-05  -0.6740798719E-06
   0.3753215694E+01   0.5944509672E+00   0.7291274386E+00   0.2953205229E+02   0.7408314326E+00   0.1753265436E-07   0.4677421520E+01   0.4255974136E-05   0.6740802978E-06
   0.3639155033E+01   0.1314601637E+01   0.7291274386E+00   0.2953205472E+02   0.7408289915E+00   0.1739255238E-07   0.4677414007E+01   0.4255974198E-05   0.6740798731E-06
     1     2     3     4     5     6     7     8
     2     9    10     3     6    11    12     7
 VARIABLES = X,Y,Z,S11,S22,S33,S12,S13,S23
 ZONE, T="0.3000D+01" F=FEPOINT, I=   12 J=    2 ET=BRICK
   0.0000000000E+00   0.0000000000E+00   0.0000000000E+00   0.2738207703E+02   0.2890806813E+01   0.7434971080E-07   0.8896982217E+01  -0.5229507683E-05  -0.1699170488E-05
   0.1807007314E+01   0.5871324960E+00  -0.1961901220E-06   0.2738202329E+02   0.2890738510E+01  -0.5366198775E-04   0.8896979979E+01   0.1270875665E-12  -0.3992863357E-12
   0.1581694678E+01   0.1280573484E+01  -0.1961901223E-06   0.2738202329E+02   0.2890738510E+01  -0.5366198773E-04   0.8896979978E+01  -0.1268195569E-12   0.3966760888E-12
  -0.2253127696E+00   0.6934414017E+00   0.0000000000E+00   0.2738208407E+02   0.2890799538E+01  -0.3937162032E-07   0.8896972360E+01  -0.5229507952E-05  -0.1699169692E-05
  -0.5454702984E-16   0.1678784957E-15   0.7291274386E+00   0.2738207702E+02   0.2890806812E+01   0.7435002064E-07   0.8896982215E+01   0.5229507683E-05   0.1699170486E-05
   0.1807007314E+01   0.5871324960E+00   0.7291276348E+00   0.2738202329E+02   0.2890738510E+01  -0.5366198794E-04   0.8896979978E+01  -0.1332624976E-12   0.4003089785E-12
   0.1581694678E+01   0.1280573484E+01   0.7291276348E+00   0.2738202329E+02   0.2890738509E+01  -0.5366198825E-04   0.8896979977E+01   0.1314943649E-12  -0.3986223340E-12
  -0.2253127696E+00   0.6934414017E+00   0.7291274386E+00   0.2738208407E+02   0.2890799538E+01  -0.3937213837E-07   0.8896972359E+01   0.5229507956E-05   0.1699169693E-05
   0.3614014762E+01   0.1174264579E+01  -0.7796122250E-16   0.2738208407E+02   0.2890799538E+01  -0.3937176390E-07   0.8896972360E+01   0.5229507941E-05   0.1699169696E-05
   0.3388701992E+01   0.1867705980E+01   0.2566007742E-15   0.2738207702E+02   0.2890806812E+01   0.7434824439E-07   0.8896982215E+01   0.5229507696E-05   0.1699170493E-05
   0.3614014762E+01   0.1174264579E+01   0.7291274386E+00   0.2738208407E+02   0.2890799538E+01  -0.3937178350E-07   0.8896972359E+01  -0.5229507941E-05  -0.1699169690E-05
   0.3388701992E+01   0.1867705980E+01   0.7291274386E+00   0.2738207702E+02   0.2890806812E+01   0.7434837574E-07   0.8896982214E+01  -0.5229507690E-05  -0.1699170495E-05
     1     2     3     4     5     6     7     8
     2     9    10     3     6    11    12     7
 VARIABLES = X,Y,Z,S11,S22,S33,S12,S13,S23
 ZONE, T="0.4000D+01" F=FEPOINT, I=   12 J=    2 ET=BRICK
   0.0000000000E+00   0.0000000000E+00   0.0000000000E+00   0.2403341428E+02   0.6239469555E+01   0.7400818881E-07   0.1224564227E+02  -0.4896248876E-05  -0.2494763878E-05
   0.1692912297E+01   0.8625821430E+00  -0.1960673433E-06   0.2403336093E+02   0.6239400978E+01  -0.5361133639E-04   0.1224564239E+02   0.1888461143E-12  -0.3764834059E-12
   0.1361895564E+01   0.1512239061E+01  -0.1960673435E-06   0.2403336093E+02   0.6239400977E+01  -0.5361133712E-04   0.1224564239E+02  -0.1878966689E-12   0.3736474215E-12
  -0.3310169302E+00   0.6496573047E+00   0.0000000000E+00   0.2403342402E+02   0.6239459592E+01  -0.3903033214E-07   0.1224563511E+02  -0.4896249263E-05  -0.2494763134E-05
  -0.8013744806E-16   0.1572785975E-15   0.7291274386E+00   0.2403341428E+02   0.6239469554E+01   0.7400756814E-07   0.1224564226E+02   0.4896248875E-05   0.2494763876E-05
   0.1692912297E+01   0.8625821430E+00   0.7291276347E+00   0.2403336093E+02   0.6239400977E+01  -0.5361133605E-04   0.1224564239E+02  -0.1927281615E-12   0.3712368576E-12
   0.1361895564E+01   0.1512239061E+01   0.7291276347E+00   0.2403336093E+02   0.6239400976E+01  -0.5361133711E-04   0.1224564238E+02   0.1909830193E-12  -0.3710185346E-12
  -0.3310169302E+00   0.6496573047E+00   0.7291274386E+00   0.2403342401E+02   0.6239459591E+01  -0.3903078621E-07   0.1224563511E+02   0.4896249269E-05   0.2494763137E-05
   0.3385824792E+01   0.1725163899E+01  -0.7796122250E-16   0.2403342402E+02   0.6239459592E+01  -0.3903101463E-07   0.1224563511E+02   0.4896249253E-05   0.2494763136E-05
   0.3054807862E+01   0.2374821204E+01   0.2566007742E-15   0.2403341428E+02   0.6239469554E+01   0.7400808174E-07   0.1224564226E+02   0.4896248885E-05   0.2494763888E-05
   0.3385824792E+01   0.1725163899E+01   0.7291274386E+00   0.2403342401E+02   0.6239459592E+01  -0.3903039502E-07   0.1224563511E+02  -0.4896249256E-05  -0.2494763132E-05
   0.3054807862E+01   0.2374821204E+01   0.7291274386E+00   0.2403341428E+02   0.6239469553E+01   0.7400786845E-07   0.1224564226E+02  -0.4896248883E-05  -0.2494763883E-05
     1     2     3     4     5     6     7     8
     2     9    10     3     6    11    12     7
 VARIABLES = X,Y,Z,S11,S22,S33,S12,S13,S23
 ZONE, T="0.5000D+01" F=FEPOINT, I=   12 J=    2 ET=BRICK
   0.0000000000E+00   0.0000000000E+00   0.0000000000E+00   0.1981385380E+02   0.1045903004E+02   0.7404587475E-07   0.1439561356E+02  -0.4515781140E-05  -0.3280907578E-05
   0.1537132160E+01   0.1116792158E+01  -0.1991580712E-06   0.1981379871E+02   0.1045896030E+02  -0.5495978635E-04   0.1439561608E+02   0.2563690751E-12  -0.3533637441E-12
   0.1108562064E+01   0.1706668290E+01  -0.1991580718E-06   0.1981379871E+02   0.1045896030E+02  -0.5495978530E-04   0.1439561608E+02  -0.2519998957E-12   0.3472670594E-12
  -0.4285703554E+00   0.5898764889E+00   0.0000000000E+00   0.1981386545E+02   0.1045901815E+02  -0.3906487286E-07   0.1439560974E+02  -0.4515781664E-05  -0.3280906889E-05
  -0.1037546164E-15   0.1428059781E-15   0.7291274386E+00   0.1981385380E+02   0.1045903004E+02   0.7404654058E-07   0.1439561356E+02   0.4515781143E-05   0.3280907579E-05
   0.1537132160E+01   0.1116792158E+01   0.7291276377E+00   0.1981379871E+02   0.1045896030E+02  -0.5495978642E-04   0.1439561608E+02  -0.2559097778E-12   0.3507788727E-12
   0.1108562064E+01   0.1706668290E+01   0.7291276377E+00   0.1981379870E+02   0.1045896029E+02  -0.5495978537E-04   0.1439561608E+02   0.2525433724E-12  -0.3477188429E-12
  -0.4285703554E+00   0.5898764889E+00   0.7291274386E+00   0.1981386545E+02   0.1045901815E+02  -0.3906499453E-07   0.1439560973E+02   0.4515781665E-05   0.3280906890E-05
   0.3074264579E+01   0.2233583959E+01  -0.7796122250E-16   0.1981386545E+02   0.1045901816E+02  -0.3906298364E-07   0.1439560974E+02   0.4515781646E-05   0.3280906886E-05
   0.2645694223E+01   0.2823460448E+01   0.2566007742E-15   0.1981385380E+02   0.1045903004E+02   0.7404372228E-07   0.1439561356E+02   0.4515781156E-05   0.3280907596E-05
   0.3074264579E+01   0.2233583959E+01   0.7291274386E+00   0.1981386545E+02   0.1045901815E+02  -0.3906311662E-07   0.1439560974E+02  -0.4515781649E-05  -0.3280906878E-05
   0.2645694223E+01   0.2823460448E+01   0.7291274386E+00   0.1981385379E+02   0.1045903004E+02   0.7404437462E-07   0.1439561356E+02  -0.4515781151E-05  -0.3280907589E-05
     1     2     3     4     5     6     7     8
     2     9    10     3     6    11    12     7
 VARIABLES = X,Y,Z,S11,S22,S33,S12,S13,S23
 ZONE, T="0.6000D+01" F=FEPOINT, I=   12 J=    2 ET=BRICK
   0.0000000000E+00   0.0000000000E+00   0.0000000000E+00   0.1513643554E+02   0.1513644830E+02   0.7438671677E-07   0.1513644185E+02  -0.4062581020E-05  -0.4062581666E-05
   0.1343502723E+01   0.1343503045E+01  -0.2049933219E-06   0.1513637671E+02   0.1513637670E+02  -0.5756116231E-04   0.1513644667E+02   0.3245984111E-12  -0.3318554717E-12
   0.8279320890E+00   0.1859073679E+01  -0.2049933224E-06   0.1513637670E+02   0.1513637670E+02  -0.5756116309E-04   0.1513644667E+02  -0.3221264149E-12   0.3246086989E-12
  -0.5155709562E+00   0.5155709562E+00   0.0000000000E+00   0.1513644818E+02   0.1513643542E+02  -0.3939871355E-07   0.1513644184E+02  -0.4062581679E-05  -0.4062581029E-05
  -0.1248170016E-15   0.1248170016E-15   0.7291274386E+00   0.1513643554E+02   0.1513644830E+02   0.7438567592E-07   0.1513644184E+02   0.4062581020E-05   0.4062581666E-05
   0.1343502723E+01   0.1343503045E+01   0.7291276436E+00   0.1513637670E+02   0.1513637670E+02  -0.5756116230E-04   0.1513644667E+02  -0.3284068255E-12   0.3199293343E-12
   0.8279320890E+00   0.1859073679E+01   0.7291276436E+00   0.1513637670E+02   0.1513637670E+02  -0.5756116242E-04   0.1513644667E+02   0.3230865993E-12  -0.3208584533E-12
  -0.5155709562E+00   0.5155709562E+00   0.7291274386E+00   0.1513644818E+02   0.1513643542E+02  -0.3939787441E-07   0.1513644184E+02   0.4062581683E-05   0.4062581030E-05
   0.2687005769E+01   0.2687005769E+01  -0.7796122250E-16   0.1513644818E+02   0.1513643543E+02  -0.3939845387E-07   0.1513644184E+02   0.4062581662E-05   0.4062581027E-05
   0.2171434812E+01   0.3202576725E+01   0.2566007742E-15   0.1513643554E+02   0.1513644830E+02   0.7438606636E-07   0.1513644184E+02   0.4062581031E-05   0.4062581677E-05
   0.2687005769E+01   0.2687005769E+01   0.7291274386E+00   0.1513644818E+02   0.1513643542E+02  -0.3939876320E-07   0.1513644184E+02  -0.4062581671E-05  -0.4062581013E-05
   0.2171434812E+01   0.3202576725E+01   0.7291274386E+00   0.1513643554E+02   0.1513644829E+02   0.7438522319E-07   0.1513644184E+02  -0.4062581027E-05  -0.4062581684E-05
     1     2     3     4     5     6     7     8
     2     9    10     3     6    11    12     7
 VARIABLES = X,Y,Z,S11,S22,S33,S12,S13,S23
 ZONE, T="0.7000D+01" F=FEPOINT, I=   12 J=    2 ET=BRICK
   0.0000000000E+00   0.0000000000E+00   0.0000000000E+00   0.1045901784E+02   0.1981386601E+02   0.7500475886E-07   0.1439560960E+02  -0.3510480024E-05  -0.4831762080E-05
   0.1116791788E+01   0.1537132429E+01  -0.2130936533E-06   0.1045895340E+02   0.1981379205E+02  -0.6126973968E-04   0.1439561646E+02   0.4032750677E-12  -0.2972401052E-12
   0.5269156823E+00   0.1965702505E+01  -0.2130936541E-06   0.1045895340E+02   0.1981379205E+02  -0.6126973804E-04   0.1439561646E+02  -0.4026385716E-12   0.2875487400E-12
  -0.5898764889E+00   0.4285703554E+00   0.0000000000E+00   0.1045903036E+02   0.1981385325E+02  -0.4000682159E-07   0.1439561370E+02  -0.3510480842E-05  -0.4831761515E-05
  -0.1428059781E-15   0.1037546164E-15   0.7291274386E+00   0.1045901783E+02   0.1981386600E+02   0.7500469063E-07   0.1439560960E+02   0.3510480030E-05   0.4831762087E-05
   0.1116791788E+01   0.1537132429E+01   0.7291276517E+00   0.1045895340E+02   0.1981379205E+02  -0.6126973920E-04   0.1439561646E+02  -0.4048678386E-12   0.2895124276E-12
   0.5269156823E+00   0.1965702505E+01   0.7291276517E+00   0.1045895339E+02   0.1981379205E+02  -0.6126973789E-04   0.1439561646E+02   0.3970275214E-12  -0.2940122595E-12
  -0.5898764889E+00   0.4285703554E+00   0.7291274386E+00   0.1045903036E+02   0.1981385324E+02  -0.4000750747E-07   0.1439561370E+02   0.3510480840E-05   0.4831761510E-05
   0.2233583959E+01   0.3074264579E+01  -0.7796122250E-16   0.1045903036E+02   0.1981385325E+02  -0.4000542281E-07   0.1439561370E+02   0.3510480818E-05   0.4831761504E-05
   0.1643707470E+01   0.3502834934E+01   0.2566007742E-15   0.1045901783E+02   0.1981386600E+02   0.7500397143E-07   0.1439560959E+02   0.3510480037E-05   0.4831762105E-05
   0.2233583959E+01   0.3074264579E+01   0.7291274386E+00   0.1045903036E+02   0.1981385325E+02  -0.4000642831E-07   0.1439561370E+02  -0.3510480838E-05  -0.4831761499E-05
   0.1643707470E+01   0.3502834934E+01   0.7291274386E+00   0.1045901783E+02   0.1981386600E+02   0.7500291509E-07   0.1439560959E+02  -0.3510480030E-05  -0.4831762092E-05
     1     2     3     4     5     6     7     8
     2     9    10     3     6    11    12     7
 VARIABLES = X,Y,Z,S11,S22,S33,S12,S13,S23
 ZONE, T="0.8000D+01" F=FEPOINT, I=   12 J=    2 ET=BRICK
   0.0000000000E+00   0.0000000000E+00   0.0000000000E+00   0.6239458999E+01   0.2403342484E+02   0.7583604360E-07   0.1224563459E+02  -0.2833739050E-05  -0.5561527223E-05
   0.8625817282E+00   0.1692912509E+01  -0.2227079948E-06   0.6239387429E+01   0.2403334828E+02  -0.6581775821E-04   0.1224564301E+02   0.4860867310E-12  -0.2558653290E-12
   0.2129248661E+00   0.2023929213E+01  -0.2227079958E-06   0.6239387428E+01   0.2403334828E+02  -0.6581775842E-04   0.1224564301E+02  -0.4849557167E-12   0.2432557969E-12
  -0.6496573047E+00   0.3310169302E+00   0.0000000000E+00   0.6239470148E+01   0.2403341346E+02  -0.4082546955E-07   0.1224564278E+02  -0.2833740032E-05  -0.5561526755E-05
  -0.1572785975E-15   0.8013744806E-16   0.7291274386E+00   0.6239458999E+01   0.2403342484E+02   0.7583570970E-07   0.1224563459E+02   0.2833739058E-05   0.5561527238E-05
   0.8625817282E+00   0.1692912509E+01   0.7291276613E+00   0.6239387428E+01   0.2403334828E+02  -0.6581775782E-04   0.1224564301E+02  -0.4878113309E-12   0.2395632599E-12
   0.2129248661E+00   0.2023929213E+01   0.7291276613E+00   0.6239387427E+01   0.2403334828E+02  -0.6581775757E-04   0.1224564301E+02   0.4807164793E-12  -0.2486539747E-12
  -0.6496573047E+00   0.3310169302E+00   0.7291274386E+00   0.6239470147E+01   0.2403341345E+02  -0.4082583810E-07   0.1224564278E+02   0.2833740029E-05   0.5561526746E-05
   0.1725163899E+01   0.3385824792E+01  -0.7796122250E-16   0.6239470148E+01   0.2403341346E+02  -0.4082435954E-07   0.1224564278E+02   0.2833740007E-05   0.5561526746E-05
   0.1075506594E+01   0.3716841722E+01   0.2566007742E-15   0.6239458998E+01   0.2403342484E+02   0.7583628356E-07   0.1224563459E+02   0.2833739059E-05   0.5561527250E-05
   0.1725163899E+01   0.3385824792E+01   0.7291274386E+00   0.6239470147E+01   0.2403341345E+02  -0.4082571736E-07   0.1224564278E+02  -0.2833740032E-05  -0.5561526731E-05
   0.1075506594E+01   0.3716841722E+01   0.7291274386E+00   0.6239458997E+01   0.2403342484E+02   0.7583470516E-07   0.1224563459E+02  -0.2833739055E-05  -0.5561527242E-05
     1     2     3     4     5     6     7     8
     2     9    10     3     6    11    12     7
 VARIABLES = X,Y,Z,S11,S22,S33,S12,S13,S23
 ZONE, T="0.9000D+01" F=FEPOINT, I=   12 J=    2 ET=BRICK
   0.0000000000E+00   0.0000000000E+00   0.0000000000E+00   0.2890798943E+01   0.2738208490E+02   0.7680432868E-07   0.8896971382E+01  -0.2017244195E-05  -0.6208441175E-05
   0.5871320416E+00   0.1807007462E+01  -0.2329157594E-06   0.2890719263E+01   0.2738200577E+02  -0.7082197443E-04   0.8896980609E+01   0.5690718069E-12  -0.1928435353E-12
  -0.1063088646E+00   0.2032320070E+01  -0.2329157601E-06   0.2890719262E+01   0.2738200577E+02  -0.7082197332E-04   0.8896980607E+01  -0.5681014210E-12   0.1779331752E-12
  -0.6934414017E+00   0.2253127696E+00   0.0000000000E+00   0.2890807408E+01   0.2738207619E+02  -0.4177890760E-07   0.8896983195E+01  -0.2017245335E-05  -0.6208440827E-05
  -0.1678784957E-15   0.5454702984E-16   0.7291274386E+00   0.2890798943E+01   0.2738208490E+02   0.7680296232E-07   0.8896971381E+01   0.2017244201E-05   0.6208441191E-05
   0.5871320416E+00   0.1807007462E+01   0.7291276715E+00   0.2890719262E+01   0.2738200577E+02  -0.7082197334E-04   0.8896980607E+01  -0.5687994496E-12   0.1758238484E-12
  -0.1063088646E+00   0.2032320070E+01   0.7291276715E+00   0.2890719262E+01   0.2738200577E+02  -0.7082197322E-04   0.8896980606E+01   0.5645107925E-12  -0.1899951704E-12
  -0.6934414017E+00   0.2253127696E+00   0.7291274386E+00   0.2890807407E+01   0.2738207619E+02  -0.4178076823E-07   0.8896983194E+01   0.2017245339E-05   0.6208440824E-05
   0.1174264579E+01   0.3614014762E+01  -0.7796122250E-16   0.2890807408E+01   0.2738207620E+02  -0.4177754951E-07   0.8896983195E+01   0.2017245313E-05   0.6208440834E-05
   0.4808231769E+00   0.3839327532E+01   0.2566007742E-15   0.2890798943E+01   0.2738208490E+02   0.7680312208E-07   0.8896971380E+01   0.2017244203E-05   0.6208441201E-05
   0.1174264579E+01   0.3614014762E+01   0.7291274386E+00   0.2890807408E+01   0.2738207619E+02  -0.4177874026E-07   0.8896983194E+01  -0.2017245346E-05  -0.6208440798E-05
   0.4808231769E+00   0.3839327532E+01   0.7291274386E+00   0.2890798942E+01   0.2738208489E+02   0.7680044413E-07   0.8896971379E+01  -0.2017244193E-05  -0.6208441189E-05
     1     2     3     4     5     6     7     8
     2     9    10     3     6    11    12     7
 VARIABLES = X,Y,Z,S11,S22,S33,S12,S13,S23
 ZONE, T="0.1000D+02" F=FEPOINT, I=   12 J=    2 ET=BRICK
   0.0000000000E+00   0.0000000000E+00   0.0000000000E+00   0.7408279152E+00   0.2953205593E+02   0.7782148730E-07   0.4677410509E+01  -0.1064140125E-05  -0.6718720472E-05
   0.2972252147E+00   0.1876607890E+01  -0.2427108998E-06   0.7407399213E+00   0.2953197453E+02  -0.7579654790E-04   0.4677419602E+01   0.6463707613E-12  -0.1083075474E-12
  -0.4229249175E+00   0.1990668465E+01  -0.2427109006E-06   0.7407399213E+00   0.2953197452E+02  -0.7579654748E-04   0.4677419602E+01  -0.6393678018E-12   0.9519478890E-13
  -0.7201506699E+00   0.1140606608E+00   0.0000000000E+00   0.7408325093E+00   0.2953205109E+02  -0.4278350635E-07   0.4677425019E+01  -0.1064141413E-05  -0.6718720291E-05
  -0.1743446683E-15   0.2761348272E-16   0.7291274386E+00   0.7408279151E+00   0.2953205593E+02   0.7781957819E-07   0.4677410509E+01   0.1064140129E-05   0.6718720489E-05
   0.2972252147E+00   0.1876607890E+01   0.7291276813E+00   0.7407399213E+00   0.2953197452E+02  -0.7579654629E-04   0.4677419602E+01  -0.6408661297E-12   0.9499014936E-13
  -0.4229249175E+00   0.1990668465E+01   0.7291276813E+00   0.7407399212E+00   0.2953197452E+02  -0.7579654586E-04   0.4677419601E+01   0.6401176087E-12  -0.1082660575E-12
  -0.7201506699E+00   0.1140606608E+00   0.7291274386E+00   0.7408325093E+00   0.2953205109E+02  -0.4278442181E-07   0.4677425019E+01   0.1064141413E-05   0.6718720291E-05
   0.5944509672E+00   0.3753215694E+01  -0.7796122250E-16   0.7408325094E+00   0.2953205109E+02  -0.4278298488E-07   0.4677425020E+01   0.1064141389E-05   0.6718720287E-05
  -0.1256997027E+00   0.3867276355E+01   0.2566007742E-15   0.7408279151E+00   0.2953205593E+02   0.7782078755E-07   0.4677410508E+01   0.1064140128E-05   0.6718720497E-05
   0.5944509672E+00   0.3753215694E+01   0.7291274386E+00   0.7408325093E+00   0.2953205109E+02  -0.4278394231E-07   0.4677425019E+01  -0.1064141424E-05  -0.6718720268E-05
  -0.1256997027E+00   0.3867276355E+01   0.7291274386E+00   0.7408279150E+00   0.2953205592E+02   0.7781885136E-07   0.4677410508E+01  -0.1064140123E-05  -0.6718720493E-05
     1     2     3     4     5     6     7     8
     2     9    10     3     6    11    12     7
 VARIABLES = X,Y,Z,S11,S22,S33,S12,S13,S23
 ZONE, T="0.1100D+02" F=FEPOINT, I=   12 J=    2 ET=BRICK
   0.0000000000E+00   0.0000000000E+00   0.0000000000E+00   0.1743787396E-07   0.3027288371E+02   0.1743787269E-07  -0.1740664143E-09  -0.2098510774E-14   0.9028669253E-10
  -0.6210365555E-11   0.1900000000E+01   0.3221408488E-11  -0.9218017979E-08   0.3027288368E+02  -0.9132274581E-08   0.1023971586E-13   0.5673366602E-14  -0.2779618972E-14
  -0.7291274386E+00   0.1900000000E+01   0.3220691134E-11  -0.9216847373E-08   0.3027288368E+02  -0.9131095879E-08   0.6809471473E-16   0.1328083944E-14  -0.7573887447E-14
  -0.7291274386E+00   0.1110223025E-15   0.0000000000E+00   0.1743711811E-07   0.3027288370E+02   0.1743711236E-07   0.1740656723E-09  -0.3846875815E-15   0.9026410307E-10
  -0.1765178965E-15   0.4930380658E-31   0.7291274386E+00   0.1743711044E-07   0.3027288370E+02   0.1743710940E-07  -0.1740528200E-09   0.2050402677E-14  -0.9026837276E-10
  -0.6210476577E-11   0.1900000000E+01   0.7291274386E+00  -0.9217297032E-08   0.3027288368E+02  -0.9131555296E-08  -0.7836286916E-14   0.2985625878E-14  -0.3467458165E-14
  -0.7291274386E+00   0.1900000000E+01   0.7291274386E+00  -0.9216992121E-08   0.3027288367E+02  -0.9131242289E-08   0.1004763439E-13  -0.1359657567E-14  -0.7545638375E-14
  -0.7291274386E+00   0.0000000000E+00   0.7291274386E+00   0.1743599282E-07   0.3027288370E+02   0.1743598730E-07   0.1740633654E-09   0.3764225082E-14  -0.9026396975E-10
   0.1554312234E-14   0.3800000000E+01  -0.7796122250E-16   0.1743751945E-07   0.3027288371E+02   0.1743750013E-07   0.1740840762E-09  -0.2331763322E-13  -0.9027018155E-10
  -0.7291274386E+00   0.3800000000E+01   0.2566007742E-15   0.1743884035E-07   0.3027288370E+02   0.1743881878E-07  -0.1740683536E-09  -0.5111067156E-14  -0.9026092200E-10
  -0.1332267630E-14   0.3800000000E+01   0.7291274386E+00   0.1743655823E-07   0.3027288370E+02   0.1743657792E-07   0.1740407580E-09  -0.1932261452E-13   0.9028350804E-10
  -0.7291274386E+00   0.3800000000E+01   0.7291274386E+00   0.1743533652E-07   0.3027288370E+02   0.1743535397E-07  -0.1740396595E-09  -0.1116049246E-14   0.9026720730E-10
     1     2     3     4     5     6     7     8
     2     9    10     3     6    11    12     7
