 VARIABLES = X,Y,Z,DU1,DU2,DU3,U1,U2,U3,S11,S22,S33,S12,S13,S23
 ZONE, T="0.1000D-01" F=FEPOINT, I=   12 J=    2 ET=BRICK
   0.0000000000E+00   0.0000000000E+00   0.0000000000E+00   0.0000000000E+00   0.0000000000E+00   0.0000000000E+00   0.0000000000E+00   0.0000000000E+00   0.0000000000E+00   0.0000000000E+00   0.0000000000E+00   0.0000000000E+00   0.0000000000E+00   0.0000000000E+00   0.0000000000E+00
   0.1000000000E+01   0.0000000000E+00   0.0000000000E+00   0.0000000000E+00   0.0000000000E+00   0.0000000000E+00   0.0000000000E+00   0.0000000000E+00   0.0000000000E+00   0.7407856067E-01   0.3648645525E-01   0.3648645525E-01  -0.1941048611E-18  -0.9507566601E-19   0.0000000000E+00
   0.1000000000E+01   0.1000000000E+01   0.0000000000E+00   0.0000000000E+00   0.0000000000E+00   0.0000000000E+00   0.0000000000E+00   0.0000000000E+00   0.0000000000E+00   0.7407856066E-01   0.3648645525E-01   0.3648645525E-01  -0.1941048611E-18  -0.1917035160E-18   0.0000000000E+00
   0.0000000000E+00   0.1000000000E+01   0.0000000000E+00   0.0000000000E+00   0.0000000000E+00   0.0000000000E+00   0.0000000000E+00   0.0000000000E+00   0.0000000000E+00   0.0000000000E+00   0.0000000000E+00   0.0000000000E+00   0.0000000000E+00   0.0000000000E+00   0.0000000000E+00
   0.0000000000E+00   0.0000000000E+00   0.1000000000E+01   0.0000000000E+00   0.0000000000E+00   0.0000000000E+00   0.0000000000E+00   0.0000000000E+00   0.0000000000E+00   0.0000000000E+00   0.0000000000E+00   0.0000000000E+00   0.0000000000E+00   0.0000000000E+00   0.0000000000E+00
   0.1000000000E+01   0.0000000000E+00   0.1000000000E+01   0.0000000000E+00   0.0000000000E+00   0.0000000000E+00   0.0000000000E+00   0.0000000000E+00   0.0000000000E+00   0.7407856066E-01   0.3648645525E-01   0.3648645525E-01  -0.2182383097E-18  -0.9507566601E-19   0.0000000000E+00
   0.1000000000E+01   0.1000000000E+01   0.1000000000E+01   0.0000000000E+00   0.0000000000E+00   0.0000000000E+00   0.0000000000E+00   0.0000000000E+00   0.0000000000E+00   0.7407856066E-01   0.3648645525E-01   0.3648645525E-01  -0.2182383096E-18  -0.1917035160E-18   0.0000000000E+00
   0.0000000000E+00   0.1000000000E+01   0.1000000000E+01   0.0000000000E+00   0.0000000000E+00   0.0000000000E+00   0.0000000000E+00   0.0000000000E+00   0.0000000000E+00   0.0000000000E+00   0.0000000000E+00   0.0000000000E+00   0.0000000000E+00   0.0000000000E+00   0.0000000000E+00
   0.2000100000E+01   0.0000000000E+00   0.0000000000E+00   0.1000000000E-03   0.0000000000E+00   0.0000000000E+00   0.0000000000E+00   0.0000000000E+00   0.0000000000E+00   0.1481571213E+00   0.7297291050E-01   0.7297291050E-01  -0.4364766193E-18  -0.3834070320E-18   0.0000000000E+00
   0.2000100000E+01   0.1000000000E+01   0.0000000000E+00   0.1000000000E-03   0.0000000000E+00   0.0000000000E+00   0.0000000000E+00   0.0000000000E+00   0.0000000000E+00   0.1481571213E+00   0.7297291050E-01   0.7297291050E-01  -0.4364766193E-18  -0.6357441052E-18   0.0000000000E+00
   0.2000100000E+01   0.0000000000E+00   0.1000000000E+01   0.1000000000E-03   0.0000000000E+00   0.0000000000E+00   0.0000000000E+00   0.0000000000E+00   0.0000000000E+00   0.1481571213E+00   0.7297291050E-01   0.7297291050E-01  -0.6499640588E-18  -0.3834070319E-18   0.0000000000E+00
   0.2000100000E+01   0.1000000000E+01   0.1000000000E+01   0.1000000000E-03   0.0000000000E+00   0.0000000000E+00   0.0000000000E+00   0.0000000000E+00   0.0000000000E+00   0.1481571213E+00   0.7297291050E-01   0.7297291050E-01  -0.6499640587E-18  -0.6357441052E-18   0.0000000000E+00
     1     2     3     4     5     6     7     8
     2     9    10     3     6    11    12     7
 VARIABLES = X,Y,Z,DU1,DU2,DU3,U1,U2,U3,S11,S22,S33,S12,S13,S23
 ZONE, T="0.2000D-01" F=FEPOINT, I=   12 J=    2 ET=BRICK
   0.0000000000E+00   0.0000000000E+00   0.0000000000E+00   0.0000000000E+00   0.0000000000E+00   0.0000000000E+00   0.0000000000E+00   0.0000000000E+00   0.0000000000E+00   0.1957269211E-02   0.1204703746E-04  -0.2622874431E-03  -0.1371670003E-03   0.1371670179E-03   0.2600543312E-20
   0.1000002222E+01   0.0000000000E+00   0.1094593658E-05   0.2222283298E-05   0.0000000000E+00   0.1094593658E-05   0.0000000000E+00   0.0000000000E+00   0.0000000000E+00   0.1457536472E+00   0.6975002651E-01   0.6892702218E-01  -0.1371637737E-03   0.1371638414E-03  -0.1250755196E-14
   0.1000002222E+01   0.9999989054E+00   0.1094593658E-05   0.2222283298E-05  -0.1094593658E-05   0.1094593658E-05   0.0000000000E+00   0.0000000000E+00   0.0000000000E+00   0.1457536472E+00   0.6975002651E-01   0.6892702218E-01  -0.2743275400E-03   0.1371638414E-03   0.2810914006E-14
   0.0000000000E+00   0.1000000000E+01   0.0000000000E+00   0.0000000000E+00   0.0000000000E+00   0.0000000000E+00   0.0000000000E+00   0.0000000000E+00   0.0000000000E+00   0.1957269211E-02   0.1204703746E-04  -0.2622874431E-03  -0.2743339932E-03   0.1371670179E-03   0.1770801239E-14
   0.0000000000E+00   0.0000000000E+00   0.1000000000E+01   0.0000000000E+00   0.0000000000E+00   0.0000000000E+00   0.0000000000E+00   0.0000000000E+00   0.0000000000E+00   0.1957269211E-02   0.1204703746E-04  -0.2622874431E-03  -0.1371670003E-03  -0.1371670179E-03   0.3541598739E-14
   0.1000002222E+01   0.0000000000E+00   0.9999989054E+00   0.2222283298E-05   0.0000000000E+00  -0.1094593658E-05   0.0000000000E+00   0.0000000000E+00   0.0000000000E+00   0.1457536472E+00   0.6975002651E-01   0.6892702218E-01  -0.1371637737E-03  -0.1371638414E-03   0.1187556043E-13
   0.1000002222E+01   0.9999989054E+00   0.9999989054E+00   0.2222283298E-05  -0.1094593658E-05  -0.1094593658E-05   0.0000000000E+00   0.0000000000E+00   0.0000000000E+00   0.1457536472E+00   0.6975002651E-01   0.6892702218E-01  -0.2743275400E-03  -0.1371638414E-03   0.1843873595E-13
   0.0000000000E+00   0.1000000000E+01   0.1000000000E+01   0.0000000000E+00   0.0000000000E+00   0.0000000000E+00   0.0000000000E+00   0.0000000000E+00   0.0000000000E+00   0.1957269211E-02   0.1204703747E-04  -0.2622874431E-03  -0.2743339932E-03  -0.1371670179E-03   0.5312397377E-14
   0.2000200000E+01   0.0000000000E+00   0.2189187315E-05   0.1000000000E-03   0.0000000000E+00   0.2189187315E-05   0.1000000000E-03   0.0000000000E+00   0.0000000000E+00   0.2895500256E+00   0.1394880062E+00   0.1381163311E+00  -0.1371605472E-03   0.1371606649E-03  -0.2501591564E-14
   0.2000200000E+01   0.9999978108E+00   0.2189187315E-05   0.1000000000E-03  -0.2189187315E-05   0.2189187315E-05   0.1000000000E-03   0.0000000000E+00   0.0000000000E+00   0.2895500256E+00   0.1394880062E+00   0.1381163311E+00  -0.2743210869E-03   0.1371606649E-03   0.3850967975E-14
   0.2000200000E+01   0.0000000000E+00   0.9999978108E+00   0.1000000000E-03   0.0000000000E+00  -0.2189187315E-05   0.1000000000E-03   0.0000000000E+00   0.0000000000E+00   0.2895500256E+00   0.1394880062E+00   0.1381163311E+00  -0.1371605471E-03  -0.1371606649E-03   0.2020955070E-13
   0.2000200000E+01   0.9999978108E+00   0.9999978108E+00   0.1000000000E-03  -0.2189187315E-05  -0.2189187315E-05   0.1000000000E-03   0.0000000000E+00   0.0000000000E+00   0.2895500256E+00   0.1394880062E+00   0.1381163311E+00  -0.2743210869E-03  -0.1371606649E-03   0.3156512563E-13
     1     2     3     4     5     6     7     8
     2     9    10     3     6    11    12     7
 VARIABLES = X,Y,Z,DU1,DU2,DU3,U1,U2,U3,S11,S22,S33,S12,S13,S23
 ZONE, T="0.3000D-01" F=FEPOINT, I=   12 J=    2 ET=BRICK
   0.0000000000E+00   0.0000000000E+00  -0.3753601105E-08   0.0000000000E+00   0.0000000000E+00  -0.3753601105E-08   0.0000000000E+00   0.0000000000E+00   0.0000000000E+00   0.7112926533E-02   0.1035979222E-03  -0.8576210241E-03  -0.4882062592E-03   0.4882067015E-03  -0.1293683871E-09
   0.1000008007E+01   0.0000000000E+00   0.3892138251E-05   0.5784704790E-05   0.0000000000E+00   0.2797544593E-05   0.2222283298E-05   0.0000000000E+00   0.1094593658E-05   0.2136761008E+00   0.9796519272E-01   0.9505731569E-01  -0.4866496132E-03   0.4881974018E-03  -0.1303721523E-09
   0.1000008019E+01   0.9999960832E+00   0.3892138251E-05   0.5797047972E-05  -0.2822232552E-05   0.2797544593E-05   0.2222283298E-05  -0.1094593658E-05   0.1094593658E-05   0.2136761007E+00   0.9796519296E-01   0.9505731553E-01  -0.9763923472E-03   0.4881974017E-03  -0.2587167072E-09
   0.0000000000E+00   0.9999999914E+00  -0.3753601105E-08   0.0000000000E+00  -0.8591439455E-08  -0.3753601105E-08   0.0000000000E+00   0.0000000000E+00   0.0000000000E+00   0.7114988484E-02   0.1025671406E-03  -0.8586521936E-03  -0.9779592489E-03   0.4882067008E-03  -0.2577261136E-09
   0.0000000000E+00   0.0000000000E+00   0.1000000004E+01   0.0000000000E+00   0.0000000000E+00   0.3753601105E-08   0.0000000000E+00   0.0000000000E+00   0.0000000000E+00   0.7112926533E-02   0.1035979222E-03  -0.8576210241E-03  -0.4882062592E-03  -0.4882067015E-03   0.1293807796E-09
   0.1000008007E+01   0.0000000000E+00   0.9999961079E+00   0.5784704789E-05   0.0000000000E+00  -0.2797544593E-05   0.2222283298E-05   0.0000000000E+00  -0.1094593658E-05   0.2136761008E+00   0.9796519271E-01   0.9505731568E-01  -0.4866496132E-03  -0.4881974018E-03   0.1304095999E-09
   0.1000008019E+01   0.9999960832E+00   0.9999961079E+00   0.5797047972E-05  -0.2822232552E-05  -0.2797544593E-05   0.2222283298E-05  -0.1094593658E-05  -0.1094593658E-05   0.2136761007E+00   0.9796519295E-01   0.9505731553E-01  -0.9763923471E-03  -0.4881974018E-03   0.2587919614E-09
   0.0000000000E+00   0.9999999914E+00   0.1000000004E+01   0.0000000000E+00  -0.8591439455E-08   0.3753601104E-08   0.0000000000E+00   0.0000000000E+00   0.0000000000E+00   0.7114988484E-02   0.1025671406E-03  -0.8586521936E-03  -0.9779592488E-03  -0.4882067008E-03   0.2577510982E-09
   0.2000300000E+01   0.0000000000E+00   0.7788029434E-05   0.1000000000E-03   0.0000000000E+00   0.5598842119E-05   0.2000000000E-03   0.0000000000E+00   0.2189187315E-05   0.4202392812E+00   0.1958267901E+00   0.1909722436E+00  -0.4881861142E-03   0.4881881020E-03  -0.1293672891E-09
   0.2000300000E+01   0.9999921749E+00   0.7788029434E-05   0.1000000000E-03  -0.5635872385E-05   0.5598842119E-05   0.2000000000E-03  -0.2189187315E-05   0.2189187315E-05   0.4202372190E+00   0.1958278214E+00   0.1909732745E+00  -0.9779185925E-03   0.4881881027E-03  -0.2576986723E-09
   0.2000300000E+01   0.0000000000E+00   0.9999922120E+00   0.1000000000E-03   0.0000000000E+00  -0.5598842119E-05   0.2000000000E-03   0.0000000000E+00  -0.2189187315E-05   0.4202392812E+00   0.1958267901E+00   0.1909722436E+00  -0.4881861142E-03  -0.4881881020E-03   0.1294297923E-09
   0.2000300000E+01   0.9999921749E+00   0.9999922120E+00   0.1000000000E-03  -0.5635872385E-05  -0.5598842118E-05   0.2000000000E-03  -0.2189187315E-05  -0.2189187315E-05   0.4202372190E+00   0.1958278214E+00   0.1909732745E+00  -0.9779185924E-03  -0.4881881027E-03   0.2578241968E-09
     1     2     3     4     5     6     7     8
     2     9    10     3     6    11    12     7
 VARIABLES = X,Y,Z,DU1,DU2,DU3,U1,U2,U3,S11,S22,S33,S12,S13,S23
 ZONE, T="0.4000D-01" F=FEPOINT, I=   12 J=    2 ET=BRICK
   0.0000000000E+00   0.0000000000E+00  -0.1733823910E-07   0.0000000000E+00   0.0000000000E+00  -0.1358463799E-07   0.0000000000E+00   0.0000000000E+00  -0.3753601105E-08   0.1662169386E-01   0.4092448736E-03  -0.1736368318E-02  -0.1111453532E-02   0.1111468148E-02  -0.3538640825E-08
   0.1000018517E+01   0.0000000000E+00   0.8852162131E-05   0.1050961586E-04   0.0000000000E+00   0.4960023880E-05   0.8006988088E-05   0.0000000000E+00   0.3892138251E-05   0.2768011877E+00   0.1197003503E+00   0.1131410067E+00  -0.1103368058E-02   0.1111454690E-02  -0.9671625227E-09
   0.1000018581E+01   0.9999910195E+00   0.8852162129E-05   0.1056166387E-04  -0.5063705108E-05   0.4960023879E-05   0.8019331270E-05  -0.3916826210E-05   0.3892138251E-05   0.2768011868E+00   0.1197003522E+00   0.1131410056E+00  -0.2222871414E-02   0.1111455982E-02  -0.1910307717E-08
   0.0000000000E+00   0.9999999533E+00  -0.1736916246E-07   0.0000000000E+00  -0.3813582465E-07  -0.1361556136E-07   0.0000000000E+00  -0.8591439455E-08  -0.3753601105E-08   0.1663244613E-01   0.4038650026E-03  -0.1741740726E-02  -0.2230975966E-02   0.1111469434E-02  -0.4481882714E-08
   0.0000000000E+00   0.0000000000E+00   0.1000000017E+01   0.0000000000E+00   0.0000000000E+00   0.1358463799E-07   0.0000000000E+00   0.0000000000E+00   0.3753601105E-08   0.1662169385E-01   0.4092448737E-03  -0.1736368318E-02  -0.1111453532E-02  -0.1111468148E-02   0.3538668433E-08
   0.1000018517E+01   0.0000000000E+00   0.9999911478E+00   0.1050961586E-04   0.0000000000E+00  -0.4960023880E-05   0.8006988087E-05   0.0000000000E+00  -0.3892138251E-05   0.2768011877E+00   0.1197003503E+00   0.1131410067E+00  -0.1103368058E-02  -0.1111454690E-02   0.9672467154E-09
   0.1000018581E+01   0.9999910195E+00   0.9999911478E+00   0.1056166387E-04  -0.5063705107E-05  -0.4960023879E-05   0.8019331270E-05  -0.3916826209E-05  -0.3892138250E-05   0.2768011868E+00   0.1197003521E+00   0.1131410056E+00  -0.2222871414E-02  -0.1111455982E-02   0.1910477971E-08
   0.0000000000E+00   0.9999999533E+00   0.1000000017E+01   0.0000000000E+00  -0.3813582465E-07   0.1361556135E-07   0.0000000000E+00  -0.8591439455E-08   0.3753601104E-08   0.1663244613E-01   0.4038650026E-03  -0.1741740726E-02  -0.2230975965E-02  -0.1111469434E-02   0.4481938968E-08
   0.2000400000E+01   0.0000000000E+00   0.1772165562E-04   0.1000000000E-03   0.0000000000E+00   0.9933626183E-05   0.3000000000E-03   0.0000000000E+00   0.7788029434E-05   0.5369807123E+00   0.2389914696E+00   0.2280183370E+00  -0.1111417942E-02   0.1111441231E-02   0.1628205719E-08
   0.2000400000E+01   0.9999820857E+00   0.1772168654E-04   0.1000000000E-03  -0.1008926273E-04   0.9933657104E-05   0.3000000000E-03  -0.7825059700E-05   0.7788029434E-05   0.5369699582E+00   0.2389968532E+00   0.2280237074E+00  -0.2230902220E-02   0.1111442529E-02   0.6851572485E-09
   0.2000400000E+01   0.0000000000E+00   0.9999822783E+00   0.1000000000E-03   0.0000000000E+00  -0.9933626183E-05   0.3000000000E-03   0.0000000000E+00  -0.7788029434E-05   0.5369807123E+00   0.2389914696E+00   0.2280183370E+00  -0.1111417941E-02  -0.1111441231E-02  -0.1628064939E-08
   0.2000400000E+01   0.9999820857E+00   0.9999822783E+00   0.1000000000E-03  -0.1008926273E-04  -0.9933657103E-05   0.3000000000E-03  -0.7825059700E-05  -0.7788029433E-05   0.5369699582E+00   0.2389968532E+00   0.2280237074E+00  -0.2230902219E-02  -0.1111442529E-02  -0.6848729908E-09
     1     2     3     4     5     6     7     8
     2     9    10     3     6    11    12     7
 VARIABLES = X,Y,Z,DU1,DU2,DU3,U1,U2,U3,S11,S22,S33,S12,S13,S23
 ZONE, T="0.5000D-01" F=FEPOINT, I=   12 J=    2 ET=BRICK
   0.0000000000E+00   0.0000000000E+00  -0.4597471030E-07   0.0000000000E+00   0.0000000000E+00  -0.2863647120E-07   0.0000000000E+00   0.0000000000E+00  -0.1733823910E-07   0.3152093454E-01   0.1134530927E-02  -0.2716616284E-02  -0.2042769698E-02   0.2042860809E-02  -0.2154799623E-07
   0.1000034694E+01   0.0000000000E+00   0.1625593381E-04   0.1617690834E-04   0.0000000000E+00   0.7403771677E-05   0.1851660394E-04   0.0000000000E+00   0.8852162131E-05   0.3344494021E+00   0.1339972426E+00   0.1220749355E+00  -0.2017534808E-02   0.2042856677E-02  -0.3869730346E-08
   0.1000034895E+01   0.9999833444E+00   0.1625593380E-04   0.1631378180E-04  -0.7675115927E-05   0.7403771669E-05   0.1858099514E-04  -0.8980531317E-05   0.8852162129E-05   0.3344493981E+00   0.1339972504E+00   0.1220749317E+00  -0.4085500595E-02   0.2042865550E-02  -0.7601373006E-08
   0.0000000000E+00   0.9999998469E+00  -0.4618714035E-07   0.0000000000E+00  -0.1063388864E-06  -0.2881797789E-07   0.0000000000E+00  -0.4672726410E-07  -0.1736916246E-07   0.3155452661E-01   0.1117705126E-02  -0.2733382554E-02  -0.4110759724E-02   0.2042869655E-02  -0.2528010064E-07
   0.0000000000E+00   0.0000000000E+00   0.1000000046E+01   0.0000000000E+00   0.0000000000E+00   0.2863647119E-07   0.0000000000E+00   0.0000000000E+00   0.1733823910E-07   0.3152093454E-01   0.1134530927E-02  -0.2716616284E-02  -0.2042769698E-02  -0.2042860809E-02   0.2154804564E-07
   0.1000034694E+01   0.0000000000E+00   0.9999837441E+00   0.1617690834E-04   0.0000000000E+00  -0.7403771677E-05   0.1851660394E-04   0.0000000000E+00  -0.8852162130E-05   0.3344494021E+00   0.1339972426E+00   0.1220749355E+00  -0.2017534808E-02  -0.2042856678E-02   0.3869882727E-08
   0.1000034895E+01   0.9999833444E+00   0.9999837441E+00   0.1631378180E-04  -0.7675115926E-05  -0.7403771669E-05   0.1858099514E-04  -0.8980531317E-05  -0.8852162129E-05   0.3344493981E+00   0.1339972504E+00   0.1220749317E+00  -0.4085500595E-02  -0.2042865551E-02   0.7601683591E-08
   0.0000000000E+00   0.9999998469E+00   0.1000000046E+01   0.0000000000E+00  -0.1063388864E-06   0.2881797788E-07   0.0000000000E+00  -0.4672726410E-07   0.1736916246E-07   0.3155452661E-01   0.1117705126E-02  -0.2733382554E-02  -0.4110759724E-02  -0.2042869655E-02   0.2528020269E-07
   0.2000500000E+01   0.0000000000E+00   0.3255781057E-04   0.1000000000E-03   0.0000000000E+00   0.1483615496E-04   0.4000000000E-03   0.0000000000E+00   0.1772165562E-04   0.6373779709E+00   0.2668600019E+00   0.2468663383E+00  -0.2042731006E-02   0.2042852543E-02   0.1394604342E-07
   0.2000500000E+01   0.9999668418E+00   0.3255802298E-04   0.1000000000E-03  -0.1524384754E-04   0.1483633645E-04   0.4000000000E-03  -0.1791432243E-04   0.1772168654E-04   0.6373443707E+00   0.2668768432E+00   0.2468830972E+00  -0.4110672553E-02   0.2042861444E-02   0.1021486312E-07
   0.2000500000E+01   0.0000000000E+00   0.9999674422E+00   0.1000000000E-03   0.0000000000E+00  -0.1483615496E-04   0.4000000000E-03   0.0000000000E+00  -0.1772165562E-04   0.6373779709E+00   0.2668600019E+00   0.2468663383E+00  -0.2042731005E-02  -0.2042852543E-02  -0.1394578806E-07
   0.2000500000E+01   0.9999668418E+00   0.9999674420E+00   0.1000000000E-03  -0.1524384754E-04  -0.1483633645E-04   0.4000000000E-03  -0.1791432243E-04  -0.1772168654E-04   0.6373443707E+00   0.2668768432E+00   0.2468830972E+00  -0.4110672553E-02  -0.2042861444E-02  -0.1021434400E-07
     1     2     3     4     5     6     7     8
     2     9    10     3     6    11    12     7
 VARIABLES = X,Y,Z,DU1,DU2,DU3,U1,U2,U3,S11,S22,S33,S12,S13,S23
 ZONE, T="0.6000D-01" F=FEPOINT, I=   12 J=    2 ET=BRICK
   0.0000000000E+00   0.0000000000E+00  -0.8857125640E-07   0.0000000000E+00   0.0000000000E+00  -0.4259654610E-07   0.0000000000E+00   0.0000000000E+00  -0.4597471030E-07   0.5269922001E-01   0.2547994234E-02  -0.3490379819E-02  -0.3292858605E-02   0.3293204983E-02  -0.8124416988E-07
   0.1000057229E+01   0.0000000000E+00   0.2619073998E-04   0.2253582108E-04   0.0000000000E+00   0.9934806172E-05   0.3469351229E-04   0.0000000000E+00   0.1625593381E-04   0.3863397878E+00   0.1404151996E+00   0.1214461469E+00  -0.3231844208E-02   0.3293242060E-02  -0.1120109283E-07
   0.1000057716E+01   0.9999728462E+00   0.2619073995E-04   0.2282155852E-04  -0.1049814413E-04   0.9934806150E-05   0.3489477694E-04  -0.1665564724E-04   0.1625593380E-04   0.3863397753E+00   0.1404152227E+00   0.1214461363E+00  -0.6585710883E-02   0.3293277214E-02  -0.2186439657E-07
   0.0000000000E+00   0.9999996102E+00  -0.8941286740E-07   0.0000000000E+00  -0.2367351398E-06  -0.4322572706E-07   0.0000000000E+00  -0.1530661505E-06  -0.4618714035E-07   0.5278045966E-01   0.2507250326E-02  -0.3530875562E-02  -0.6646741955E-02   0.3293240048E-02  -0.9190898704E-07
   0.0000000000E+00   0.0000000000E+00   0.1000000089E+01   0.0000000000E+00   0.0000000000E+00   0.4259654609E-07   0.0000000000E+00   0.0000000000E+00   0.4597471029E-07   0.5269922000E-01   0.2547994234E-02  -0.3490379818E-02  -0.3292858605E-02  -0.3293204983E-02   0.8124424704E-07
   0.1000057229E+01   0.0000000000E+00   0.9999738093E+00   0.2253582108E-04   0.0000000000E+00  -0.9934806172E-05   0.3469351229E-04   0.0000000000E+00  -0.1625593381E-04   0.3863397878E+00   0.1404151996E+00   0.1214461469E+00  -0.3231844208E-02  -0.3293242060E-02   0.1120133398E-07
   0.1000057716E+01   0.9999728462E+00   0.9999738093E+00   0.2282155852E-04  -0.1049814413E-04  -0.9934806149E-05   0.3489477694E-04  -0.1665564724E-04  -0.1625593380E-04   0.3863397753E+00   0.1404152226E+00   0.1214461363E+00  -0.6585710883E-02  -0.3293277214E-02   0.2186489291E-07
   0.0000000000E+00   0.9999996102E+00   0.1000000089E+01   0.0000000000E+00  -0.2367351398E-06   0.4322572704E-07   0.0000000000E+00  -0.1530661505E-06   0.4618714034E-07   0.5278045965E-01   0.2507250326E-02  -0.3530875562E-02  -0.6646741955E-02  -0.3293240048E-02   0.9190914917E-07
   0.2000600000E+01   0.0000000000E+00   0.5246995106E-04   0.1000000000E-03   0.0000000000E+00   0.1991214049E-04   0.5000000000E-03   0.0000000000E+00   0.3255781057E-04   0.7199806142E+00   0.2782825290E+00   0.2463822910E+00  -0.3292852452E-02   0.3293279131E-02   0.5937961583E-07
   0.2000600000E+01   0.9999460824E+00   0.5247079260E-04   0.1000000000E-03  -0.2075943208E-04   0.1991276962E-04   0.5000000000E-03  -0.3315816996E-04   0.3255802298E-04   0.7198993492E+00   0.2783233186E+00   0.2464227663E+00  -0.6646702448E-02   0.3293314374E-02   0.4871783132E-07
   0.2000600000E+01   0.0000000000E+00   0.9999475300E+00   0.1000000000E-03   0.0000000000E+00  -0.1991214049E-04   0.5000000000E-03   0.0000000000E+00  -0.3255781057E-04   0.7199806141E+00   0.2782825290E+00   0.2463822910E+00  -0.3292852451E-02  -0.3293279131E-02  -0.5937921068E-07
   0.2000600000E+01   0.9999460824E+00   0.9999475292E+00   0.1000000000E-03  -0.2075943208E-04  -0.1991276962E-04   0.5000000000E-03  -0.3315816996E-04  -0.3255802298E-04   0.7198993492E+00   0.2783233186E+00   0.2464227663E+00  -0.6646702448E-02  -0.3293314374E-02  -0.4871700075E-07
     1     2     3     4     5     6     7     8
     2     9    10     3     6    11    12     7
 VARIABLES = X,Y,Z,DU1,DU2,DU3,U1,U2,U3,S11,S22,S33,S12,S13,S23
 ZONE, T="0.7000D-01" F=FEPOINT, I=   12 J=    2 ET=BRICK
   0.0000000000E+00   0.0000000000E+00  -0.1303358739E-06   0.0000000000E+00   0.0000000000E+00  -0.4176461749E-07   0.0000000000E+00   0.0000000000E+00  -0.8857125640E-07   0.8086560083E-01   0.4961846979E-02  -0.3647531696E-02  -0.4846133824E-02   0.4847140739E-02  -0.2353793346E-06
   0.1000086547E+01   0.0000000000E+00   0.3854852832E-04   0.2931786084E-04   0.0000000000E+00   0.1235778834E-04   0.5722933337E-04   0.0000000000E+00   0.2619073998E-04   0.4325944637E+00   0.1390384640E+00   0.1115385396E+00  -0.4720403477E-02   0.4847274071E-02  -0.2630508659E-07
   0.1000087551E+01   0.9999594754E+00   0.3854852826E-04   0.2983487718E-04  -0.1337083214E-04   0.1235778832E-04   0.5771633546E-04  -0.2715379138E-04   0.2619073995E-04   0.4325944330E+00   0.1390385189E+00   0.1115385154E+00  -0.9692360029E-02   0.4847379011E-02  -0.5098474454E-07
   0.0000000000E+00   0.9999991514E+00  -0.1328481307E-06   0.0000000000E+00  -0.4588171252E-06  -0.4343526325E-07   0.0000000000E+00  -0.3898012902E-06  -0.8941286740E-07   0.8103298687E-01   0.4877772937E-02  -0.3730843700E-02  -0.9818074892E-02   0.4847245450E-02  -0.2600627793E-06
   0.0000000000E+00   0.0000000000E+00   0.1000000130E+01   0.0000000000E+00   0.0000000000E+00   0.4176461747E-07   0.0000000000E+00   0.0000000000E+00   0.8857125638E-07   0.8086560082E-01   0.4961846979E-02  -0.3647531696E-02  -0.4846133824E-02  -0.4847140739E-02   0.2353794440E-06
   0.1000086547E+01   0.0000000000E+00   0.9999614515E+00   0.2931786084E-04   0.0000000000E+00  -0.1235778834E-04   0.5722933337E-04   0.0000000000E+00  -0.2619073998E-04   0.4325944637E+00   0.1390384640E+00   0.1115385396E+00  -0.4720403477E-02  -0.4847274072E-02   0.2630543386E-07
   0.1000087551E+01   0.9999594754E+00   0.9999614515E+00   0.2983487718E-04  -0.1337083214E-04  -0.1235778831E-04   0.5771633545E-04  -0.2715379137E-04  -0.2619073995E-04   0.4325944330E+00   0.1390385189E+00   0.1115385154E+00  -0.9692360029E-02  -0.4847379012E-02   0.5098546789E-07
   0.0000000000E+00   0.9999991514E+00   0.1000000133E+01   0.0000000000E+00  -0.4588171252E-06   0.4343526322E-07   0.0000000000E+00  -0.3898012902E-06   0.8941286737E-07   0.8103298687E-01   0.4877772937E-02  -0.3730843700E-02  -0.9818074891E-02  -0.4847245450E-02   0.2600630141E-06
   0.2000700000E+01   0.0000000000E+00   0.7722714180E-04   0.1000000000E-03   0.0000000000E+00   0.2475719074E-04   0.6000000000E-03   0.0000000000E+00   0.5246995106E-04   0.7843238786E+00   0.2731153480E+00   0.2267237919E+00  -0.4846226457E-02   0.4847407391E-02   0.1844050553E-06
   0.2000700000E+01   0.9999197998E+00   0.7722965391E-04   0.1000000000E-03  -0.2628259038E-04   0.2475886131E-04   0.6000000000E-03  -0.5391760205E-04   0.5247079260E-04   0.7841564301E+00   0.2731995307E+00   0.2268070576E+00  -0.9818198483E-02   0.4847512561E-02   0.1597292198E-06
   0.2000700000E+01   0.0000000000E+00   0.9999227729E+00   0.1000000000E-03   0.0000000000E+00  -0.2475719074E-04   0.6000000000E-03   0.0000000000E+00  -0.5246995106E-04   0.7843238786E+00   0.2731153480E+00   0.2267237919E+00  -0.4846226457E-02  -0.4847407391E-02  -0.1844044702E-06
   0.2000700000E+01   0.9999197998E+00   0.9999227703E+00   0.1000000000E-03  -0.2628259037E-04  -0.2475886131E-04   0.6000000000E-03  -0.5391760204E-04  -0.5247079260E-04   0.7841564301E+00   0.2731995307E+00   0.2268070576E+00  -0.9818198483E-02  -0.4847512561E-02  -0.1597280078E-06
     1     2     3     4     5     6     7     8
     2     9    10     3     6    11    12     7
 VARIABLES = X,Y,Z,DU1,DU2,DU3,U1,U2,U3,S11,S22,S33,S12,S13,S23
 ZONE, T="0.8000D-01" F=FEPOINT, I=   12 J=    2 ET=BRICK
   0.0000000000E+00   0.0000000000E+00  -0.1341189288E-06   0.0000000000E+00   0.0000000000E+00  -0.3783054949E-08   0.0000000000E+00   0.0000000000E+00  -0.1303358739E-06   0.1165211925E+00   0.8702895229E-02  -0.2715312934E-02  -0.6661172226E-02   0.6663631370E-02  -0.5742198567E-06
   0.1000122797E+01   0.0000000000E+00   0.5303854283E-04   0.3625014313E-04   0.0000000000E+00   0.1449001452E-04   0.8654719421E-04   0.0000000000E+00   0.3854852832E-04   0.4737150754E+00   0.1304474868E+00   0.9329040598E-01  -0.6429467054E-02   0.6663939368E-02  -0.5316741645E-07
   0.1000124648E+01   0.9999433372E+00   0.5303854286E-04   0.3709697485E-04  -0.1613815078E-04   0.1449001460E-04   0.8755121264E-04  -0.4052462351E-04   0.3854852826E-04   0.4737150116E+00   0.1304475990E+00   0.9329035759E-01  -0.1332263518E-01   0.6664200920E-02  -0.1022405480E-06
   0.0000000000E+00   0.9999983437E+00  -0.1403801272E-06   0.0000000000E+00  -0.8076497152E-06  -0.7531996495E-08   0.0000000000E+00  -0.8486184155E-06  -0.1328481307E-06   0.1168295543E+00   0.8547746321E-02  -0.2868525799E-02  -0.1355425524E-01   0.6663892413E-02  -0.6233007170E-06
   0.0000000000E+00   0.0000000000E+00   0.1000000134E+01   0.0000000000E+00   0.0000000000E+00   0.3783054922E-08   0.0000000000E+00   0.0000000000E+00   0.1303358738E-06   0.1165211925E+00   0.8702895230E-02  -0.2715312934E-02  -0.6661172226E-02  -0.6663631370E-02   0.5742200006E-06
   0.1000122797E+01   0.0000000000E+00   0.9999469615E+00   0.3625014313E-04   0.0000000000E+00  -0.1449001451E-04   0.8654719421E-04   0.0000000000E+00  -0.3854852832E-04   0.4737150754E+00   0.1304474868E+00   0.9329040597E-01  -0.6429467054E-02  -0.6663939369E-02   0.5316788174E-07
   0.1000124648E+01   0.9999433372E+00   0.9999469615E+00   0.3709697485E-04  -0.1613815078E-04  -0.1449001460E-04   0.8755121263E-04  -0.4052462351E-04  -0.3854852826E-04   0.4737150116E+00   0.1304475990E+00   0.9329035759E-01  -0.1332263518E-01  -0.6664200921E-02   0.1022415315E-06
   0.0000000000E+00   0.9999983437E+00   0.1000000140E+01   0.0000000000E+00  -0.8076497152E-06   0.7531996447E-08   0.0000000000E+00  -0.8486184155E-06   0.1328481306E-06   0.1168295543E+00   0.8547746321E-02  -0.2868525798E-02  -0.1355425524E-01  -0.6663892413E-02   0.6233010343E-06
   0.2000800000E+01   0.0000000000E+00   0.1062106693E-03   0.1000000000E-03   0.0000000000E+00   0.2898352752E-04   0.7000000000E-03   0.0000000000E+00   0.7722714180E-04   0.8309099883E+00   0.2521925766E+00   0.1892945968E+00  -0.6661463291E-02   0.6664247348E-02   0.4720439629E-06
   0.2000800000E+01   0.9998883316E+00   0.1062169305E-03   0.1000000000E-03  -0.3146818651E-04   0.2898727655E-04   0.7000000000E-03  -0.8020019242E-04   0.7722965391E-04   0.8306014961E+00   0.2523479471E+00   0.1894477184E+00  -0.1355471650E-01   0.6664509410E-02   0.4229787240E-06
   0.2000800000E+01   0.0000000000E+00   0.9998937893E+00   0.1000000000E-03   0.0000000000E+00  -0.2898352752E-04   0.7000000000E-03   0.0000000000E+00  -0.7722714180E-04   0.8309099883E+00   0.2521925765E+00   0.1892945968E+00  -0.6661463291E-02  -0.6664247348E-02  -0.4720431763E-06
   0.2000800000E+01   0.9998883316E+00   0.9998937831E+00   0.1000000000E-03  -0.3146818651E-04  -0.2898727655E-04   0.7000000000E-03  -0.8020019242E-04  -0.7722965391E-04   0.8306014961E+00   0.2523479471E+00   0.1894477184E+00  -0.1355471650E-01  -0.6664509410E-02  -0.4229770742E-06
     1     2     3     4     5     6     7     8
     2     9    10     3     6    11    12     7
 VARIABLES = X,Y,Z,DU1,DU2,DU3,U1,U2,U3,S11,S22,S33,S12,S13,S23
 ZONE, T="0.9000D-01" F=FEPOINT, I=   12 J=    2 ET=BRICK
   0.0000000000E+00   0.0000000000E+00  -0.3140636876E-07   0.0000000000E+00   0.0000000000E+00   0.1027125601E-06   0.0000000000E+00   0.0000000000E+00  -0.1341189288E-06   0.1599349955E+00   0.1407635131E-01  -0.2097317559E-03  -0.8672704605E-02   0.8678008905E-02  -0.1238816255E-05
   0.1000165866E+01   0.0000000000E+00   0.6921261329E-04   0.4306845787E-04   0.0000000000E+00   0.1617407046E-04   0.1227973373E-03   0.0000000000E+00   0.5303854283E-04   0.5105338111E+00   0.1156575261E+00   0.6820749704E-01  -0.8279909891E-02   0.8678587222E-02  -0.9576213211E-07
   0.1000169004E+01   0.9999246756E+00   0.6921261386E-04   0.4435588744E-04  -0.1866163079E-04   0.1617407100E-04   0.1246481875E-03  -0.5666277429E-04   0.5303854286E-04   0.5105336941E+00   0.1156577301E+00   0.6820741013E-01  -0.1734602752E-01   0.8679161025E-02  -0.1825565826E-06
   0.0000000000E+00   0.9999970209E+00  -0.4514150409E-07   0.0000000000E+00  -0.1322853713E-05   0.9523862306E-07   0.0000000000E+00  -0.1656268131E-05  -0.1403801272E-06   0.1604574668E+00   0.1381296121E-01  -0.4688129588E-03  -0.1773861877E-01   0.8678581699E-02  -0.1325624082E-05
   0.0000000000E+00   0.0000000000E+00   0.1000000031E+01   0.0000000000E+00   0.0000000000E+00  -0.1027125601E-06   0.0000000000E+00   0.0000000000E+00   0.1341189288E-06   0.1599349955E+00   0.1407635131E-01  -0.2097317554E-03  -0.8672704605E-02  -0.8678008905E-02   0.1238816433E-05
   0.1000165866E+01   0.0000000000E+00   0.9999307874E+00   0.4306845787E-04   0.0000000000E+00  -0.1617407045E-04   0.1227973373E-03   0.0000000000E+00  -0.5303854283E-04   0.5105338111E+00   0.1156575261E+00   0.6820749704E-01  -0.8279909890E-02  -0.8678587223E-02   0.9576272004E-07
   0.1000169004E+01   0.9999246756E+00   0.9999307874E+00   0.4435588744E-04  -0.1866163079E-04  -0.1617407099E-04   0.1246481875E-03  -0.5666277429E-04  -0.5303854286E-04   0.5105336940E+00   0.1156577300E+00   0.6820741013E-01  -0.1734602752E-01  -0.8679161026E-02   0.1825578478E-06
   0.0000000000E+00   0.9999970209E+00   0.1000000045E+01   0.0000000000E+00  -0.1322853713E-05  -0.9523862313E-07   0.0000000000E+00  -0.1656268131E-05   0.1403801270E-06   0.1604574668E+00   0.1381296121E-01  -0.4688129583E-03  -0.1773861876E-01  -0.8678581700E-02   0.1325624488E-05
   0.2000900000E+01   0.0000000000E+00   0.1384556174E-03   0.1000000000E-03   0.0000000000E+00   0.3224494806E-04   0.8000000000E-03   0.0000000000E+00   0.1062106693E-03   0.8611343521E+00   0.2172395297E+00   0.1366221716E+00  -0.8673323355E-02   0.8679165520E-02   0.1056508557E-05
   0.2000900000E+01   0.9998523320E+00   0.1384693533E-03   0.1000000000E-03  -0.3599965903E-04   0.3225242288E-04   0.8000000000E-03  -0.1116683789E-03   0.1062169305E-03   0.8606116406E+00   0.2175033216E+00   0.1368810912E+00  -0.1773964442E-01   0.8679740332E-02   0.9697280939E-06
   0.2000900000E+01   0.0000000000E+00   0.9998615444E+00   0.1000000000E-03   0.0000000000E+00  -0.3224494806E-04   0.8000000000E-03   0.0000000000E+00  -0.1062106693E-03   0.8611343521E+00   0.2172395297E+00   0.1366221716E+00  -0.8673323355E-02  -0.8679165520E-02  -0.1056507560E-05
   0.2000900000E+01   0.9998523320E+00   0.9998615306E+00   0.1000000000E-03  -0.3599965902E-04  -0.3225242288E-04   0.8000000000E-03  -0.1116683789E-03  -0.1062169305E-03   0.8606116405E+00   0.2175033216E+00   0.1368810912E+00  -0.1773964442E-01  -0.8679740332E-02  -0.9697259693E-06
     1     2     3     4     5     6     7     8
     2     9    10     3     6    11    12     7
 VARIABLES = X,Y,Z,DU1,DU2,DU3,U1,U2,U3,S11,S22,S33,S12,S13,S23
 ZONE, T="0.1000D+00" F=FEPOINT, I=   12 J=    2 ET=BRICK
   0.0000000000E+00   0.0000000000E+00   0.2859453211E-06   0.0000000000E+00   0.0000000000E+00   0.3173516899E-06   0.0000000000E+00   0.0000000000E+00  -0.3140636876E-07   0.2111260122E+00   0.2132599137E-01   0.4306049835E-02  -0.1079501063E-01   0.1080542546E-01  -0.2435015543E-05
   0.1000215395E+01   0.0000000000E+00   0.8650091968E-04   0.4952940003E-04   0.0000000000E+00   0.1728830639E-04   0.1658657952E-03   0.0000000000E+00   0.6921261329E-04   0.5441432821E+00   0.9603001425E-01   0.3823917899E-01  -0.1017128345E-01   0.1080637408E-01  -0.1571645487E-06
   0.1000220379E+01   0.9999038482E+00   0.8650092207E-04   0.5137515155E-04  -0.2082744148E-04   0.1728830821E-04   0.1690040749E-03  -0.7532440509E-04   0.6921261386E-04   0.5441430881E+00   0.9603035179E-01   0.3823903542E-01  -0.2159111473E-01   0.1080751753E-01  -0.2967763988E-06
   0.0000000000E+00   0.9999949740E+00   0.2585767243E-06   0.0000000000E+00  -0.2046902716E-05   0.3037182284E-06   0.0000000000E+00  -0.2979121844E-05  -0.4514150409E-07   0.2119551004E+00   0.2090710477E-01   0.3895848261E-02  -0.2221446459E-01   0.1080656708E-01  -0.2574647437E-05
   0.0000000000E+00   0.0000000000E+00   0.9999997141E+00   0.0000000000E+00   0.0000000000E+00  -0.3173516899E-06   0.0000000000E+00   0.0000000000E+00   0.3140636866E-07   0.2111260122E+00   0.2132599137E-01   0.4306049835E-02  -0.1079501063E-01  -0.1080542546E-01   0.2435015752E-05
   0.1000215395E+01   0.0000000000E+00   0.9999134991E+00   0.4952940002E-04   0.0000000000E+00  -0.1728830639E-04   0.1658657952E-03   0.0000000000E+00  -0.6921261329E-04   0.5441432821E+00   0.9603001424E-01   0.3823917899E-01  -0.1017128345E-01  -0.1080637409E-01   0.1571652553E-06
   0.1000220379E+01   0.9999038482E+00   0.9999134991E+00   0.5137515155E-04  -0.2082744148E-04  -0.1728830821E-04   0.1690040749E-03  -0.7532440508E-04  -0.6921261386E-04   0.5441430881E+00   0.9603035179E-01   0.3823903542E-01  -0.2159111473E-01  -0.1080751753E-01   0.2967779531E-06
   0.0000000000E+00   0.9999949740E+00   0.9999997414E+00   0.0000000000E+00  -0.2046902716E-05  -0.3037182285E-06   0.0000000000E+00  -0.2979121844E-05   0.4514150391E-07   0.2119551004E+00   0.2090710477E-01   0.3895848262E-02  -0.2221446459E-01  -0.1080656708E-01   0.2574647933E-05
   0.2001000000E+01   0.0000000000E+00   0.1727141372E-03   0.1000000000E-03   0.0000000000E+00   0.3425851980E-04   0.9000000000E-03   0.0000000000E+00   0.1384556174E-03   0.8771631930E+00   0.1707352895E+00   0.7216841471E-01  -0.1079610464E-01   0.1080732271E-01   0.2138985499E-05
   0.2001000000E+01   0.9998127251E+00   0.1727415098E-03   0.1000000000E-03  -0.3960688494E-04   0.3427215644E-04   0.9000000000E-03  -0.1476680380E-03   0.1384693533E-03   0.8763337047E+00   0.1711548390E+00   0.7257835346E-01  -0.2221631317E-01   0.1080846797E-01   0.1999395630E-05
   0.2001000000E+01   0.0000000000E+00   0.9998272859E+00   0.1000000000E-03   0.0000000000E+00  -0.3425851979E-04   0.9000000000E-03   0.0000000000E+00  -0.1384556174E-03   0.8771631930E+00   0.1707352895E+00   0.7216841471E-01  -0.1079610464E-01  -0.1080732271E-01  -0.2138984295E-05
   0.2001000000E+01   0.9998127251E+00   0.9998272585E+00   0.1000000000E-03  -0.3960688494E-04  -0.3427215644E-04   0.9000000000E-03  -0.1476680380E-03  -0.1384693533E-03   0.8763337047E+00   0.1711548390E+00   0.7257835346E-01  -0.2221631317E-01  -0.1080846797E-01  -0.1999393017E-05
     1     2     3     4     5     6     7     8
     2     9    10     3     6    11    12     7
 VARIABLES = X,Y,Z,DU1,DU2,DU3,U1,U2,U3,S11,S22,S33,S12,S13,S23
 ZONE, T="0.1100D+00" F=FEPOINT, I=   12 J=    2 ET=BRICK
   0.0000000000E+00   0.0000000000E+00   0.9720769740E-06   0.0000000000E+00   0.0000000000E+00   0.6861316529E-06   0.0000000000E+00   0.0000000000E+00   0.2859453211E-06   0.2698536720E+00   0.3059460032E-01   0.1116201218E-01  -0.1292651141E-01   0.1294549934E-01  -0.4447409355E-05
   0.1000270816E+01   0.0000000000E+00   0.1042553917E-03   0.5542097433E-04   0.0000000000E+00   0.1775447204E-04   0.2153951952E-03   0.0000000000E+00   0.8650091968E-04   0.5757726922E+00   0.7317868693E-01   0.5650898993E-02  -0.1198632776E-01   0.1294601950E-01  -0.2389057633E-06
   0.1000278322E+01   0.9998812957E+00   0.1042553988E-03   0.5794325972E-04  -0.2255242781E-04   0.1775447677E-04   0.2203792265E-03  -0.9615184657E-04   0.8650092207E-04   0.5757741819E+00   0.7317850015E-01   0.5649596089E-02  -0.2585298874E-01   0.1294817144E-01  -0.4461818626E-06
   0.0000000000E+00   0.9999919512E+00   0.9215155718E-06   0.0000000000E+00  -0.3022747394E-05   0.6629388475E-06   0.0000000000E+00  -0.5026024560E-05   0.2585767243E-06   0.2711012306E+00   0.2996272279E-01   0.1054633111E-01  -0.2679343104E-01   0.1294760891E-01  -0.4654739690E-05
   0.0000000000E+00   0.0000000000E+00   0.9999990279E+00   0.0000000000E+00   0.0000000000E+00  -0.6861316530E-06   0.0000000000E+00   0.0000000000E+00  -0.2859453212E-06   0.2698536720E+00   0.3059460032E-01   0.1116201218E-01  -0.1292651141E-01  -0.1294549934E-01   0.4447409588E-05
   0.1000270816E+01   0.0000000000E+00   0.9998957446E+00   0.5542097433E-04   0.0000000000E+00  -0.1775447204E-04   0.2153951952E-03   0.0000000000E+00  -0.8650091968E-04   0.5757726922E+00   0.7317868692E-01   0.5650898993E-02  -0.1198632776E-01  -0.1294601950E-01   0.2389065751E-06
   0.1000278322E+01   0.9998812957E+00   0.9998957446E+00   0.5794325972E-04  -0.2255242781E-04  -0.1775447677E-04   0.2203792265E-03  -0.9615184656E-04  -0.8650092207E-04   0.5757741819E+00   0.7317850015E-01   0.5649596089E-02  -0.2585298874E-01  -0.1294817144E-01   0.4461836975E-06
   0.0000000000E+00   0.9999919512E+00   0.9999990785E+00   0.0000000000E+00  -0.3022747394E-05  -0.6629388476E-06   0.0000000000E+00  -0.5026024560E-05  -0.2585767245E-06   0.2711012306E+00   0.2996272279E-01   0.1054633111E-01  -0.2679343103E-01  -0.1294760891E-01   0.4654740275E-05
   0.2001100000E+01   0.0000000000E+00   0.2075358869E-03   0.1000000000E-03   0.0000000000E+00   0.3482174975E-04   0.1000000000E-02   0.0000000000E+00   0.1727141372E-03   0.8814867790E+00   0.1158456171E+00   0.2618757186E-03  -0.1292161782E-01   0.1294170581E-01   0.4000977192E-05
   0.2001100000E+01   0.9997706444E+00   0.2075864609E-03   0.1000000000E-03  -0.4208063043E-04   0.3484495107E-04   0.1000000000E-02  -0.1872749229E-03   0.1727415098E-03   0.8802519308E+00   0.1164732550E+00   0.8690859381E-03  -0.2678329485E-01   0.1294411501E-01   0.3793914318E-05
   0.2001100000E+01   0.0000000000E+00   0.9997924641E+00   0.1000000000E-03   0.0000000000E+00  -0.3482174974E-04   0.1000000000E-02   0.0000000000E+00  -0.1727141372E-03   0.8814867790E+00   0.1158456171E+00   0.2618757172E-03  -0.1292161782E-01  -0.1294170581E-01  -0.4000975802E-05
   0.2001100000E+01   0.9997706444E+00   0.9997924135E+00   0.1000000000E-03  -0.4208063043E-04  -0.3484495107E-04   0.1000000000E-02  -0.1872749229E-03  -0.1727415098E-03   0.8802519308E+00   0.1164732550E+00   0.8690859367E-03  -0.2678329485E-01  -0.1294411501E-01  -0.3793911233E-05
     1     2     3     4     5     6     7     8
     2     9    10     3     6    11    12     7
 VARIABLES = X,Y,Z,DU1,DU2,DU3,U1,U2,U3,S11,S22,S33,S12,S13,S23
 ZONE, T="0.1200D+00" F=FEPOINT, I=   12 J=    2 ET=BRICK
   0.0000000000E+00   0.0000000000E+00   0.2230493897E-05   0.0000000000E+00   0.0000000000E+00   0.1258416923E-05   0.0000000000E+00   0.0000000000E+00   0.9720769740E-06   0.3356137602E+00   0.4188614444E-01   0.2052331914E-01  -0.1495532458E-01   0.1498796156E-01  -0.7653544118E-05
   0.1000331385E+01   0.0000000000E+00   0.1217980989E-03   0.6056850887E-04   0.0000000000E+00   0.1754270714E-04   0.2708161696E-03   0.0000000000E+00   0.1042553917E-03   0.6064352033E+00   0.4894347022E-01  -0.2699129390E-01  -0.1359101380E-01   0.1497899811E-01  -0.3516041133E-06
   0.1000342201E+01   0.9998575076E+00   0.1217980868E-03   0.6387882337E-04  -0.2378808634E-04   0.1754268795E-04   0.2783224862E-03  -0.1187042744E-03   0.1042553988E-03   0.6064532065E+00   0.4893679435E-01  -0.2700262129E-01  -0.2989126291E-01   0.1498309812E-01  -0.6383225358E-06
   0.0000000000E+00   0.9999876604E+00   0.2142651534E-05   0.0000000000E+00  -0.4290855485E-05   0.1221135962E-05   0.0000000000E+00  -0.8048771954E-05   0.9215155718E-06   0.3374097398E+00   0.4097397236E-01   0.1963951160E-01  -0.3126570289E-01   0.1499162620E-01  -0.7940664100E-05
   0.0000000000E+00   0.0000000000E+00   0.9999977695E+00   0.0000000000E+00   0.0000000000E+00  -0.1258416923E-05   0.0000000000E+00   0.0000000000E+00  -0.9720769742E-06   0.3356137601E+00   0.4188614444E-01   0.2052331914E-01  -0.1495532458E-01  -0.1498796156E-01   0.7653544366E-05
   0.1000331385E+01   0.0000000000E+00   0.9998782019E+00   0.6056850887E-04   0.0000000000E+00  -0.1754270714E-04   0.2708161696E-03   0.0000000000E+00  -0.1042553917E-03   0.6064352032E+00   0.4894347022E-01  -0.2699129390E-01  -0.1359101380E-01  -0.1497899812E-01   0.3516050062E-06
   0.1000342201E+01   0.9998575076E+00   0.9998782019E+00   0.6387882337E-04  -0.2378808633E-04  -0.1754268795E-04   0.2783224862E-03  -0.1187042744E-03  -0.1042553988E-03   0.6064532065E+00   0.4893679435E-01  -0.2700262129E-01  -0.2989126291E-01  -0.1498309812E-01   0.6383246246E-06
   0.0000000000E+00   0.9999876604E+00   0.9999978573E+00   0.0000000000E+00  -0.4290855485E-05  -0.1221135962E-05   0.0000000000E+00  -0.8048771954E-05  -0.9215155722E-06   0.3374097398E+00   0.4097397236E-01   0.1963951160E-01  -0.3126570288E-01  -0.1499162620E-01   0.7940664766E-05
   0.2001200000E+01   0.0000000000E+00   0.2413655325E-03   0.1000000000E-03   0.0000000000E+00   0.3382964554E-04   0.1100000000E-02   0.0000000000E+00   0.2075358869E-03   0.8751620247E+00   0.5680730068E-01  -0.7321778993E-01  -0.1488329590E-01   0.1491834942E-01   0.6969358154E-05
   0.2001200000E+01   0.9997273581E+00   0.2414531589E-03   0.1000000000E-03  -0.4328633317E-04   0.3386669802E-04   0.1100000000E-02  -0.2293555533E-03   0.2075864609E-03   0.8734640349E+00   0.5768174797E-01  -0.7239424749E-01  -0.3112017210E-01   0.1492423281E-01   0.6684841627E-05
   0.2001200000E+01   0.0000000000E+00   0.9997586345E+00   0.1000000000E-03   0.0000000000E+00  -0.3382964553E-04   0.1100000000E-02   0.0000000000E+00  -0.2075358869E-03   0.8751620246E+00   0.5680730067E-01  -0.7321778992E-01  -0.1488329590E-01  -0.1491834942E-01  -0.6969356621E-05
   0.2001200000E+01   0.9997273581E+00   0.9997585468E+00   0.1000000000E-03  -0.4328633316E-04  -0.3386669802E-04   0.1100000000E-02  -0.2293555533E-03  -0.2075864609E-03   0.8734640349E+00   0.5768174797E-01  -0.7239424749E-01  -0.3112017210E-01  -0.1492423281E-01  -0.6684838128E-05
     1     2     3     4     5     6     7     8
     2     9    10     3     6    11    12     7
 VARIABLES = X,Y,Z,DU1,DU2,DU3,U1,U2,U3,S11,S22,S33,S12,S13,S23
 ZONE, T="0.1300D+00" F=FEPOINT, I=   12 J=    2 ET=BRICK
   0.0000000000E+00   0.0000000000E+00   0.4313412310E-05   0.0000000000E+00   0.0000000000E+00   0.2082918413E-05   0.0000000000E+00   0.0000000000E+00   0.2230493897E-05   0.4076159759E+00   0.5501875936E-01   0.3232359254E-01  -0.1676573530E-01   0.1681947849E-01  -0.1254360794E-04
   0.1000396209E+01   0.0000000000E+00   0.1384750668E-03   0.6482383153E-04   0.0000000000E+00   0.1667696792E-04   0.3313846784E-03   0.0000000000E+00   0.1217980989E-03   0.6366490314E+00   0.2530829354E-01  -0.5694276024E-01  -0.1483880565E-01   0.1677147130E-01  -0.5582149875E-06
   0.1000411220E+01   0.9998329838E+00   0.1384747491E-03   0.6901918729E-04  -0.2452385631E-04   0.1667666233E-04   0.3422013096E-03  -0.1424923607E-03   0.1217980868E-03   0.6367345957E+00   0.2527400511E-01  -0.5699403609E-01  -0.3343378034E-01   0.1677962014E-01  -0.9297403000E-06
   0.0000000000E+00   0.9999817746E+00   0.4168407217E-05   0.0000000000E+00  -0.5885749880E-05   0.2025755683E-05   0.0000000000E+00  -0.1233962744E-04   0.2142651534E-05   0.4101058524E+00   0.5375023043E-01   0.3110224492E-01  -0.3541198083E-01   0.1682551640E-01  -0.1291712224E-04
   0.0000000000E+00   0.0000000000E+00   0.9999956866E+00   0.0000000000E+00   0.0000000000E+00  -0.2082918413E-05   0.0000000000E+00   0.0000000000E+00  -0.2230493898E-05   0.4076159759E+00   0.5501875936E-01   0.3232359253E-01  -0.1676573530E-01  -0.1681947850E-01   0.1254360819E-04
   0.1000396209E+01   0.0000000000E+00   0.9998615249E+00   0.6482383153E-04   0.0000000000E+00  -0.1667696792E-04   0.3313846784E-03   0.0000000000E+00  -0.1217980989E-03   0.6366490314E+00   0.2530829354E-01  -0.5694276024E-01  -0.1483880565E-01  -0.1677147130E-01   0.5582159270E-06
   0.1000411220E+01   0.9998329838E+00   0.9998615253E+00   0.6901918729E-04  -0.2452385631E-04  -0.1667666233E-04   0.3422013096E-03  -0.1424923607E-03  -0.1217980868E-03   0.6367345956E+00   0.2527400511E-01  -0.5699403609E-01  -0.3343378034E-01  -0.1677962015E-01   0.9297425961E-06
   0.0000000000E+00   0.9999817746E+00   0.9999958316E+00   0.0000000000E+00  -0.5885749880E-05  -0.2025755683E-05   0.0000000000E+00  -0.1233962744E-04  -0.2142651534E-05   0.4101058524E+00   0.5375023043E-01   0.3110224492E-01  -0.3541198083E-01  -0.1682551640E-01   0.1291712298E-04
   0.2001300000E+01   0.0000000000E+00   0.2726791624E-03   0.1000000000E-03   0.0000000000E+00   0.3131362991E-04   0.1200000000E-02   0.0000000000E+00   0.2413655325E-03   0.8591600877E+00  -0.1931210836E-02  -0.1421580753E+00  -0.1649743198E-01   0.1655807621E-01   0.1131346602E-04
   0.2001300000E+01   0.9996841669E+00   0.2728219912E-03   0.1000000000E-03  -0.4319126087E-04   0.3136883234E-04   0.1200000000E-02  -0.2726418865E-03   0.2414531589E-03   0.8569976172E+00  -0.7920843764E-03  -0.1411347313E+00  -0.3486622258E-01   0.1657153305E-01   0.1095104147E-04
   0.2001300000E+01   0.0000000000E+00   0.9997273208E+00   0.1000000000E-03   0.0000000000E+00  -0.3131362991E-04   0.1200000000E-02   0.0000000000E+00  -0.2413655325E-03   0.8591600877E+00  -0.1931210836E-02  -0.1421580752E+00  -0.1649743198E-01  -0.1655807621E-01  -0.1131346441E-04
   0.2001300000E+01   0.9996841669E+00   0.9997271780E+00   0.1000000000E-03  -0.4319126087E-04  -0.3136883234E-04   0.1200000000E-02  -0.2726418865E-03  -0.2414531589E-03   0.8569976172E+00  -0.7920843759E-03  -0.1411347313E+00  -0.3486622258E-01  -0.1657153305E-01  -0.1095103766E-04
     1     2     3     4     5     6     7     8
     2     9    10     3     6    11    12     7
 VARIABLES = X,Y,Z,DU1,DU2,DU3,U1,U2,U3,S11,S22,S33,S12,S13,S23
 ZONE, T="0.1400D+00" F=FEPOINT, I=   12 J=    2 ET=BRICK
   0.0000000000E+00   0.0000000000E+00   0.7515809756E-05   0.0000000000E+00   0.0000000000E+00   0.3202397446E-05   0.0000000000E+00   0.0000000000E+00   0.4313412310E-05   0.4847657541E+00   0.6958271868E-01   0.4620569093E-01  -0.1824546320E-01   0.1833140513E-01  -0.1975045270E-04
   0.1000464275E+01   0.0000000000E+00   0.1537123371E-03   0.6806673730E-04   0.0000000000E+00   0.1523727029E-04   0.3962085100E-03   0.0000000000E+00   0.1384750668E-03   0.6668787971E+00   0.4037022447E-02  -0.8182361400E-01  -0.1559493326E-01   0.1819768655E-01  -0.1037064820E-05
   0.1000484442E+01   0.9998081950E+00   0.1537104007E-03   0.7322142703E-04  -0.2478878715E-04   0.1523565162E-04   0.4112204969E-03  -0.1670162170E-03   0.1384747491E-03   0.6671194573E+00   0.3938066855E-02  -0.8196531871E-01  -0.3622184671E-01   0.1821318059E-01  -0.1489605496E-05
   0.0000000000E+00   0.9999739428E+00   0.7286609218E-05   0.0000000000E+00  -0.7831787230E-05   0.3118202001E-05   0.0000000000E+00  -0.1822537732E-04   0.4168407217E-05   0.4881065424E+00   0.6787471027E-01   0.4457291100E-01  -0.3901698488E-01   0.1834089038E-01  -0.2020918486E-04
   0.0000000000E+00   0.0000000000E+00   0.9999924842E+00   0.0000000000E+00   0.0000000000E+00  -0.3202397447E-05   0.0000000000E+00   0.0000000000E+00  -0.4313412310E-05   0.4847657540E+00   0.6958271868E-01   0.4620569093E-01  -0.1824546320E-01  -0.1833140513E-01   0.1975045294E-04
   0.1000464275E+01   0.0000000000E+00   0.9998462877E+00   0.6806673729E-04   0.0000000000E+00  -0.1523727029E-04   0.3962085100E-03   0.0000000000E+00  -0.1384750668E-03   0.6668787970E+00   0.4037022448E-02  -0.8182361399E-01  -0.1559493326E-01  -0.1819768655E-01   0.1037065763E-05
   0.1000484442E+01   0.9998081950E+00   0.9998462896E+00   0.7322142703E-04  -0.2478878715E-04  -0.1523565162E-04   0.4112204968E-03  -0.1670162170E-03  -0.1384747491E-03   0.6671194573E+00   0.3938066856E-02  -0.8196531871E-01  -0.3622184671E-01  -0.1821318060E-01   0.1489607936E-05
   0.0000000000E+00   0.9999739428E+00   0.9999927134E+00   0.0000000000E+00  -0.7831787229E-05  -0.3118202001E-05   0.0000000000E+00  -0.1822537732E-04  -0.4168407218E-05   0.4881065424E+00   0.6787471027E-01   0.4457291100E-01  -0.3901698488E-01  -0.1834089038E-01   0.2020918566E-04
   0.2001400000E+01   0.0000000000E+00   0.3001124338E-03   0.1000000000E-03   0.0000000000E+00   0.2743327146E-04   0.1300000000E-02   0.0000000000E+00   0.2726791624E-03   0.8361285269E+00  -0.5668240885E-01  -0.2018158707E+00  -0.1763137370E-01   0.1773385207E-01   0.1717263742E-04
   0.2001400000E+01   0.9996423061E+00   0.3003320729E-03   0.1000000000E-03  -0.4186074137E-04   0.2751008172E-04   0.1300000000E-02  -0.3158331474E-03   0.2728219912E-03   0.8335330813E+00  -0.5527398818E-01  -0.2006288458E+00  -0.3775685323E-01   0.1776017178E-01   0.1674414336E-04
   0.2001400000E+01   0.0000000000E+00   0.9996998876E+00   0.1000000000E-03   0.0000000000E+00  -0.2743327146E-04   0.1300000000E-02   0.0000000000E+00  -0.2726791624E-03   0.8361285269E+00  -0.5668240885E-01  -0.2018158707E+00  -0.1763137370E-01  -0.1773385207E-01  -0.1717263581E-04
   0.2001400000E+01   0.9996423061E+00   0.9996996679E+00   0.1000000000E-03  -0.4186074137E-04  -0.2751008172E-04   0.1300000000E-02  -0.3158331474E-03  -0.2728219912E-03   0.8335330813E+00  -0.5527398818E-01  -0.2006288458E+00  -0.3775685323E-01  -0.1776017178E-01  -0.1674413936E-04
     1     2     3     4     5     6     7     8
     2     9    10     3     6    11    12     7
 VARIABLES = X,Y,Z,DU1,DU2,DU3,U1,U2,U3,S11,S22,S33,S12,S13,S23
 ZONE, T="0.1500D+00" F=FEPOINT, I=   12 J=    2 ET=BRICK
   0.0000000000E+00   0.0000000000E+00   0.1216323316E-04   0.0000000000E+00   0.0000000000E+00   0.4647423399E-05   0.0000000000E+00   0.0000000000E+00   0.7515809756E-05   0.5656922214E+00   0.8493458962E-01   0.6150689611E-01  -0.1929252300E-01   0.1942679281E-01  -0.3006908025E-04
   0.1000534499E+01   0.0000000000E+00   0.1670598056E-03   0.7022340491E-04   0.0000000000E+00   0.1334746854E-04   0.4642752473E-03   0.0000000000E+00   0.1537123371E-03   0.6978731182E+00  -0.1359234884E-01  -0.1000130696E+00  -0.1575717359E-01   0.1916136775E-01  -0.2112059330E-05
   0.1000560824E+01   0.9997835505E+00   0.1670527627E-03   0.7638170545E-04  -0.2464452984E-04   0.1334236193E-04   0.4844419239E-03  -0.1918050042E-03   0.1537104007E-03   0.6983792931E+00  -0.1380424942E-01  -0.1003073438E+00  -0.3805272520E-01   0.1918827016E-01  -0.2631530337E-05
   0.0000000000E+00   0.9999638044E+00   0.1181426374E-04   0.0000000000E+00  -0.1013844746E-04   0.4527654520E-05   0.0000000000E+00  -0.2605716455E-04   0.7286609218E-05   0.5700472459E+00   0.8269920189E-01   0.5938725936E-01  -0.4188226334E-01   0.1944106554E-01  -0.3060269959E-04
   0.0000000000E+00   0.0000000000E+00   0.9999878368E+00   0.0000000000E+00   0.0000000000E+00  -0.4647423400E-05   0.0000000000E+00   0.0000000000E+00  -0.7515809757E-05   0.5656922214E+00   0.8493458962E-01   0.6150689611E-01  -0.1929252300E-01  -0.1942679281E-01   0.3006908046E-04
   0.1000534499E+01   0.0000000000E+00   0.9998329402E+00   0.7022340491E-04   0.0000000000E+00  -0.1334746854E-04   0.4642752473E-03   0.0000000000E+00  -0.1537123371E-03   0.6978731182E+00  -0.1359234884E-01  -0.1000130696E+00  -0.1575717359E-01  -0.1916136776E-01   0.2112060228E-05
   0.1000560824E+01   0.9997835505E+00   0.9998329472E+00   0.7638170545E-04  -0.2464452984E-04  -0.1334236193E-04   0.4844419239E-03  -0.1918050042E-03  -0.1537104007E-03   0.6983792930E+00  -0.1380424942E-01  -0.1003073438E+00  -0.3805272520E-01  -0.1918827016E-01   0.2631532846E-05
   0.0000000000E+00   0.9999638044E+00   0.9999881857E+00   0.0000000000E+00  -0.1013844746E-04  -0.4527654520E-05   0.0000000000E+00  -0.2605716455E-04  -0.7286609219E-05   0.5700472458E+00   0.8269920189E-01   0.5938725936E-01  -0.4188226334E-01  -0.1944106554E-01   0.3060270044E-04
   0.2001500000E+01   0.0000000000E+00   0.3225441583E-03   0.1000000000E-03   0.0000000000E+00   0.2243172445E-04   0.1400000000E-02   0.0000000000E+00   0.3001124338E-03   0.8102932000E+00  -0.1047400398E+00  -0.2491514676E+00  -0.1822267875E-01   0.1838889920E-01   0.2456354930E-04
   0.2001500000E+01   0.9996028750E+00   0.3228645678E-03   0.1000000000E-03  -0.3943115427E-04   0.2253249484E-04   0.1400000000E-02  -0.3576938887E-03   0.3003320729E-03   0.8072999796E+00  -0.1030611570E+00  -0.2478371301E+00  -0.3966476317E-01   0.1843361763E-01   0.2409311205E-04
   0.2001500000E+01   0.0000000000E+00   0.9996774558E+00   0.1000000000E-03   0.0000000000E+00  -0.2243172445E-04   0.1400000000E-02   0.0000000000E+00  -0.3001124338E-03   0.8102932000E+00  -0.1047400398E+00  -0.2491514676E+00  -0.1822267875E-01  -0.1838889920E-01  -0.2456354777E-04
   0.2001500000E+01   0.9996028750E+00   0.9996771354E+00   0.1000000000E-03  -0.3943115426E-04  -0.2253249484E-04   0.1400000000E-02  -0.3576938887E-03  -0.3003320729E-03   0.8072999795E+00  -0.1030611570E+00  -0.2478371301E+00  -0.3966476317E-01  -0.1843361763E-01  -0.2409310801E-04
     1     2     3     4     5     6     7     8
     2     9    10     3     6    11    12     7
 VARIABLES = X,Y,Z,DU1,DU2,DU3,U1,U2,U3,S11,S22,S33,S12,S13,S23
 ZONE, T="0.1600D+00" F=FEPOINT, I=   12 J=    2 ET=BRICK
   0.0000000000E+00   0.0000000000E+00   0.1859364468E-04   0.0000000000E+00   0.0000000000E+00   0.6430411525E-05   0.0000000000E+00   0.0000000000E+00   0.1216323316E-04   0.6488238789E+00   0.1002324953E+00   0.7729552077E-01  -0.1982095094E-01   0.2002582678E-01  -0.4445978864E-04
   0.1000605780E+01   0.0000000000E+00   0.1782165099E-03   0.7128103701E-04   0.0000000000E+00   0.1115670431E-04   0.5344986522E-03   0.0000000000E+00   0.1670598056E-03   0.7305667851E+00  -0.2682240163E-01  -0.1106823139E+00  -0.1526016518E-01   0.1960065402E-01  -0.4250017923E-05
   0.1000639276E+01   0.9997593763E+00   0.1781974215E-03   0.7845203763E-04  -0.2417421321E-04   0.1114465887E-04   0.5608236293E-03  -0.2164495340E-03   0.1670527627E-03   0.7314542323E+00  -0.2720035562E-01  -0.1111918072E+00  -0.3879015881E-01   0.1964319219E-01  -0.4812735490E-05
   0.0000000000E+00   0.9999510083E+00   0.1807944244E-04   0.0000000000E+00  -0.1279613092E-04   0.6265178699E-05   0.0000000000E+00  -0.3619561201E-04   0.1181426374E-04   0.6543566774E+00   0.9737976497E-01   0.7461545251E-01  -0.4383700057E-01   0.2004649633E-01  -0.4504870698E-04
   0.0000000000E+00   0.0000000000E+00   0.9999814064E+00   0.0000000000E+00   0.0000000000E+00  -0.6430411525E-05   0.0000000000E+00   0.0000000000E+00  -0.1216323316E-04   0.6488238789E+00   0.1002324953E+00   0.7729552077E-01  -0.1982095094E-01  -0.2002582678E-01   0.4445978882E-04
   0.1000605780E+01   0.0000000000E+00   0.9998217835E+00   0.7128103701E-04   0.0000000000E+00  -0.1115670431E-04   0.5344986522E-03   0.0000000000E+00  -0.1670598056E-03   0.7305667851E+00  -0.2682240163E-01  -0.1106823139E+00  -0.1526016518E-01  -0.1960065403E-01   0.4250018724E-05
   0.1000639276E+01   0.9997593763E+00   0.9998218026E+00   0.7845203763E-04  -0.2417421321E-04  -0.1114465887E-04   0.5608236293E-03  -0.2164495340E-03  -0.1670527627E-03   0.7314542323E+00  -0.2720035562E-01  -0.1111918072E+00  -0.3879015881E-01  -0.1964319219E-01   0.4812737989E-05
   0.0000000000E+00   0.9999510083E+00   0.9999819206E+00   0.0000000000E+00  -0.1279613092E-04  -0.6265178700E-05   0.0000000000E+00  -0.3619561201E-04  -0.1181426374E-04   0.6543566774E+00   0.9737976497E-01   0.7461545251E-01  -0.4383700057E-01  -0.2004649633E-01   0.4504870785E-04
   0.2001600000E+01   0.0000000000E+00   0.3391410464E-03   0.1000000000E-03   0.0000000000E+00   0.1659688807E-04   0.1500000000E-02   0.0000000000E+00   0.3225441583E-03   0.7862933251E+00  -0.1441613733E+00  -0.2823597076E+00  -0.1825706989E-01   0.1851419791E-01   0.3342029281E-04
   0.2001600000E+01   0.9995667896E+00   0.3395876169E-03   0.1000000000E-03  -0.3608537169E-04   0.1672304913E-04   0.1500000000E-02  -0.3971250430E-03   0.3228645678E-03   0.7829270608E+00  -0.1422100631E+00  -0.2809447534E+00  -0.4055777508E-01   0.1858247845E-01   0.3294281277E-04
   0.2001600000E+01   0.0000000000E+00   0.9996608590E+00   0.1000000000E-03   0.0000000000E+00  -0.1659688807E-04   0.1500000000E-02   0.0000000000E+00  -0.3225441583E-03   0.7862933251E+00  -0.1441613733E+00  -0.2823597076E+00  -0.1825706989E-01  -0.1851419791E-01  -0.3342029145E-04
   0.2001600000E+01   0.9995667896E+00   0.9996604124E+00   0.1000000000E-03  -0.3608537169E-04  -0.1672304913E-04   0.1500000000E-02  -0.3971250430E-03  -0.3228645678E-03   0.7829270608E+00  -0.1422100631E+00  -0.2809447534E+00  -0.4055777508E-01  -0.1858247845E-01  -0.3294280883E-04
     1     2     3     4     5     6     7     8
     2     9    10     3     6    11    12     7
 VARIABLES = X,Y,Z,DU1,DU2,DU3,U1,U2,U3,S11,S22,S33,S12,S13,S23
 ZONE, T="0.1700D+00" F=FEPOINT, I=   12 J=    2 ET=BRICK
   0.0000000000E+00   0.0000000000E+00   0.2713464558E-04   0.0000000000E+00   0.0000000000E+00   0.8541000899E-05   0.0000000000E+00   0.0000000000E+00   0.1859364468E-04   0.7324886794E+00   0.1144981355E+00   0.9244283486E-01  -0.1976536080E-01   0.2006985446E-01  -0.6403489100E-04
   0.1000677069E+01   0.0000000000E+00   0.1870400010E-03   0.7128936150E-04   0.0000000000E+00   0.8823491064E-05   0.6057796892E-03   0.0000000000E+00   0.1782165099E-03   0.7658096947E+00  -0.3534029552E-01  -0.1136530382E+00  -0.1407076183E-01   0.1948320697E-01  -0.8038674446E-05
   0.1000718720E+01   0.9997359039E+00   0.1869973153E-03   0.7944387795E-04  -0.2347230591E-04   0.8799893753E-05   0.6392756670E-03  -0.2406237472E-03   0.1781974215E-03   0.7671876828E+00  -0.3593799645E-01  -0.1144333255E+00  -0.3835588202E-01   0.1954532026E-01  -0.8613559029E-05
   0.0000000000E+00   0.9999352350E+00   0.2639862476E-04   0.0000000000E+00  -0.1577327643E-04   0.8319182322E-05   0.0000000000E+00  -0.4899174293E-04   0.1807944244E-04   0.7393564116E+00   0.1109390289E+00   0.8913420933E-01  -0.4474674489E-01   0.2009880235E-01  -0.6465156126E-04
   0.0000000000E+00   0.0000000000E+00   0.9999728654E+00   0.0000000000E+00   0.0000000000E+00  -0.8541000899E-05   0.0000000000E+00   0.0000000000E+00  -0.1859364468E-04   0.7324886794E+00   0.1144981355E+00   0.9244283485E-01  -0.1976536080E-01  -0.2006985446E-01   0.6403489112E-04
   0.1000677069E+01   0.0000000000E+00   0.9998129600E+00   0.7128936150E-04   0.0000000000E+00  -0.8823491063E-05   0.6057796892E-03   0.0000000000E+00  -0.1782165099E-03   0.7658096946E+00  -0.3534029552E-01  -0.1136530382E+00  -0.1407076183E-01  -0.1948320698E-01   0.8038675102E-05
   0.1000718720E+01   0.9997359039E+00   0.9998130027E+00   0.7944387795E-04  -0.2347230591E-04  -0.8799893753E-05   0.6392756670E-03  -0.2406237472E-03  -0.1781974215E-03   0.7671876828E+00  -0.3593799645E-01  -0.1144333255E+00  -0.3835588202E-01  -0.1954532026E-01   0.8613561438E-05
   0.0000000000E+00   0.9999352350E+00   0.9999736014E+00   0.0000000000E+00  -0.1577327643E-04  -0.8319182322E-05   0.0000000000E+00  -0.4899174293E-04  -0.1807944244E-04   0.7393564116E+00   0.1109390289E+00   0.8913420933E-01  -0.4474674489E-01  -0.2009880236E-01   0.6465156215E-04
   0.2001700000E+01   0.0000000000E+00   0.3493815489E-03   0.1000000000E-03   0.0000000000E+00   0.1024050256E-04   0.1600000000E-02   0.0000000000E+00   0.3391410464E-03   0.7681847206E+00  -0.1735657913E+00  -0.3004158572E+00  -0.1774231017E-01   0.1812234040E-01   0.4362661308E-04
   0.2001700000E+01   0.9995347517E+00   0.3499804884E-03   0.1000000000E-03  -0.3203788727E-04   0.1039287148E-04   0.1600000000E-02  -0.4332104147E-03   0.3395876169E-03   0.7644593131E+00  -0.1713404389E+00  -0.2989158022E+00  -0.4044643167E-01   0.1821867017E-01   0.4318584329E-04
   0.2001700000E+01   0.0000000000E+00   0.9996506185E+00   0.1000000000E-03   0.0000000000E+00  -0.1024050256E-04   0.1600000000E-02   0.0000000000E+00  -0.3391410463E-03   0.7681847206E+00  -0.1735657913E+00  -0.3004158572E+00  -0.1774231017E-01  -0.1812234041E-01  -0.4362661197E-04
   0.2001700000E+01   0.9995347517E+00   0.9996500195E+00   0.1000000000E-03  -0.3203788727E-04  -0.1039287148E-04   0.1600000000E-02  -0.4332104147E-03  -0.3395876169E-03   0.7644593131E+00  -0.1713404389E+00  -0.2989158022E+00  -0.4044643167E-01  -0.1821867017E-01  -0.4318583957E-04
     1     2     3     4     5     6     7     8
     2     9    10     3     6    11    12     7
 VARIABLES = X,Y,Z,DU1,DU2,DU3,U1,U2,U3,S11,S22,S33,S12,S13,S23
 ZONE, T="0.1800D+00" F=FEPOINT, I=   12 J=    2 ET=BRICK
   0.0000000000E+00   0.0000000000E+00   0.3807793759E-04   0.0000000000E+00   0.0000000000E+00   0.1094329201E-04   0.0000000000E+00   0.0000000000E+00   0.2713464558E-04   0.8150175448E+00   0.1266913015E+00   0.1057134453E+00  -0.1908437575E-01   0.1952428479E-01  -0.9003394393E-04
   0.1000747422E+01   0.0000000000E+00   0.1935440796E-03   0.7035251100E-04   0.0000000000E+00   0.6504078630E-05   0.6770690507E-03   0.0000000000E+00   0.1870400010E-03   0.8041432914E+00  -0.3918771651E-01  -0.1092422967E+00  -0.1218286983E-01   0.1880005416E-01  -0.1416000166E-04
   0.1000798141E+01   0.9997132675E+00   0.1934606989E-03   0.7942172028E-04  -0.2263647591E-04   0.6463383609E-05   0.7187195449E-03  -0.2640960531E-03   0.1869973153E-03   0.8061074480E+00  -0.4005685758E-01  -0.1103373122E+00  -0.3671841320E-01   0.1888506498E-01  -0.1471168154E-04
   0.0000000000E+00   0.9999162198E+00   0.3705135760E-04   0.0000000000E+00  -0.1901514576E-04   0.1065273284E-04   0.0000000000E+00  -0.6476501936E-04   0.2639862476E-04   0.8233628732E+00   0.1223414523E+00   0.1017179659E+00  -0.4452003273E-01   0.1956362036E-01  -0.9064536710E-04
   0.0000000000E+00   0.0000000000E+00   0.9999619221E+00   0.0000000000E+00   0.0000000000E+00  -0.1094329201E-04   0.0000000000E+00   0.0000000000E+00  -0.2713464558E-04   0.8150175447E+00   0.1266913015E+00   0.1057134453E+00  -0.1908437574E-01  -0.1952428479E-01   0.9003394398E-04
   0.1000747422E+01   0.0000000000E+00   0.9998064559E+00   0.7035251100E-04   0.0000000000E+00  -0.6504078630E-05   0.6770690507E-03   0.0000000000E+00  -0.1870400010E-03   0.8041432914E+00  -0.3918771651E-01  -0.1092422967E+00  -0.1218286983E-01  -0.1880005416E-01   0.1416000212E-04
   0.1000798141E+01   0.9997132675E+00   0.9998065393E+00   0.7942172028E-04  -0.2263647591E-04  -0.6463383609E-05   0.7187195449E-03  -0.2640960531E-03  -0.1869973153E-03   0.8061074480E+00  -0.4005685758E-01  -0.1103373122E+00  -0.3671841320E-01  -0.1888506499E-01   0.1471168378E-04
   0.0000000000E+00   0.9999162198E+00   0.9999629486E+00   0.0000000000E+00  -0.1901514576E-04  -0.1065273284E-04   0.0000000000E+00  -0.6476501936E-04  -0.2639862476E-04   0.8233628732E+00   0.1223414523E+00   0.1017179659E+00  -0.4452003272E-01  -0.1956362037E-01   0.9064536799E-04
   0.2001800000E+01   0.0000000000E+00   0.3530682292E-03   0.1000000000E-03   0.0000000000E+00   0.3686680280E-05   0.1700000000E-02   0.0000000000E+00   0.3493815489E-03   0.7589666676E+00  -0.1920709844E+00  -0.3028914184E+00  -0.1669474532E-01   0.1723400192E-01   0.5503230206E-04
   0.2001800000E+01   0.9995072269E+00   0.3538462135E-03   0.1000000000E-03  -0.2752476772E-04   0.3865725080E-05   0.1700000000E-02  -0.4652483020E-03   0.3499804884E-03   0.7548910206E+00  -0.1895740456E+00  -0.3013127101E+00  -0.3935562214E-01   0.1736200690E-01   0.5467875392E-04
   0.2001800000E+01   0.0000000000E+00   0.9996469318E+00   0.1000000000E-03   0.0000000000E+00  -0.3686680279E-05   0.1700000000E-02   0.0000000000E+00  -0.3493815489E-03   0.7589666676E+00  -0.1920709843E+00  -0.3028914184E+00  -0.1669474532E-01  -0.1723400192E-01  -0.5503230125E-04
   0.2001800000E+01   0.9995072269E+00   0.9996461538E+00   0.1000000000E-03  -0.2752476772E-04  -0.3865725080E-05   0.1700000000E-02  -0.4652483019E-03  -0.3499804884E-03   0.7548910206E+00  -0.1895740456E+00  -0.3013127101E+00  -0.3935562214E-01  -0.1736200690E-01  -0.5467875055E-04
     1     2     3     4     5     6     7     8
     2     9    10     3     6    11    12     7
 VARIABLES = X,Y,Z,DU1,DU2,DU3,U1,U2,U3,S11,S22,S33,S12,S13,S23
 ZONE, T="0.1900D+00" F=FEPOINT, I=   12 J=    2 ET=BRICK
   0.0000000000E+00   0.0000000000E+00   0.5165306179E-04   0.0000000000E+00   0.0000000000E+00   0.1357512420E-04   0.0000000000E+00   0.0000000000E+00   0.3807793759E-04   0.8947021182E+00   0.1358498056E+00   0.1159369058E+00  -0.1775888112E-01   0.1837609163E-01  -0.1237753242E-03
   0.1000816038E+01   0.0000000000E+00   0.1978879948E-03   0.6861641894E-04   0.0000000000E+00   0.4343915178E-05   0.7474215617E-03   0.0000000000E+00   0.1935440796E-03   0.8454470184E+00  -0.3857612284E-01  -0.9801455415E-01  -0.9607694732E-02   0.1755414163E-01  -0.2333684911E-04
   0.1000876633E+01   0.9996915064E+00   0.1977406357E-03   0.7849199461E-04  -0.2176108869E-04   0.4279936766E-05   0.7981412652E-03  -0.2867325290E-03   0.1934606989E-03   0.8478678121E+00  -0.3966992308E-01  -0.9934154767E-01  -0.3385711041E-01   0.1765808656E-01  -0.2381027746E-04
   0.0000000000E+00   0.9998937755E+00   0.5025428870E-04   0.0000000000E+00  -0.2244433946E-04   0.1320293110E-04   0.0000000000E+00  -0.8378016512E-04   0.3705135760E-04   0.9045334622E+00   0.1306844228E+00   0.1112709446E+00  -0.4309683329E-01   0.1842464343E-01  -0.1243362428E-03
   0.0000000000E+00   0.0000000000E+00   0.9999483469E+00   0.0000000000E+00   0.0000000000E+00  -0.1357512420E-04   0.0000000000E+00   0.0000000000E+00  -0.3807793759E-04   0.8947021182E+00   0.1358498056E+00   0.1159369058E+00  -0.1775888112E-01  -0.1837609163E-01   0.1237753242E-03
   0.1000816038E+01   0.0000000000E+00   0.9998021120E+00   0.6861641893E-04   0.0000000000E+00  -0.4343915177E-05   0.7474215617E-03   0.0000000000E+00  -0.1935440796E-03   0.8454470183E+00  -0.3857612283E-01  -0.9801455414E-01  -0.9607694732E-02  -0.1755414164E-01   0.2333684934E-04
   0.1000876633E+01   0.9996915064E+00   0.9998022594E+00   0.7849199461E-04  -0.2176108869E-04  -0.4279936766E-05   0.7981412652E-03  -0.2867325290E-03  -0.1934606989E-03   0.8478678121E+00  -0.3966992307E-01  -0.9934154767E-01  -0.3385711041E-01  -0.1765808657E-01   0.2381027947E-04
   0.0000000000E+00   0.9998937755E+00   0.9999497457E+00   0.0000000000E+00  -0.2244433946E-04  -0.1320293110E-04   0.0000000000E+00  -0.8378016512E-04  -0.3705135760E-04   0.9045334622E+00   0.1306844228E+00   0.1112709445E+00  -0.4309683329E-01  -0.1842464343E-01   0.1243362437E-03
   0.2001900000E+01   0.0000000000E+00   0.3503298730E-03   0.1000000000E-03   0.0000000000E+00  -0.2738356178E-05   0.1800000000E-02   0.0000000000E+00   0.3530682292E-03   0.7604807038E+00  -0.1993078452E+00  -0.2899490054E+00  -0.1513709438E-01   0.1587552736E-01   0.6746169678E-04
   0.2001900000E+01   0.9994844330E+00   0.3513138870E-03   0.1000000000E-03  -0.2279395423E-04  -0.2532326445E-05   0.1800000000E-02  -0.4927730697E-03   0.3538462135E-03   0.7560657765E+00  -0.1965500335E+00  -0.2882918899E+00  -0.3731854114E-01   0.1603779251E-01   0.6725020574E-04
   0.2001900000E+01   0.0000000000E+00   0.9996496701E+00   0.1000000000E-03   0.0000000000E+00   0.2738356179E-05   0.1800000000E-02   0.0000000000E+00  -0.3530682292E-03   0.7604807037E+00  -0.1993078452E+00  -0.2899490054E+00  -0.1513709438E-01  -0.1587552736E-01  -0.6746169636E-04
   0.2001900000E+01   0.9994844330E+00   0.9996486861E+00   0.1000000000E-03  -0.2279395423E-04   0.2532326445E-05   0.1800000000E-02  -0.4927730697E-03  -0.3538462135E-03   0.7560657765E+00  -0.1965500335E+00  -0.2882918899E+00  -0.3731854114E-01  -0.1603779251E-01  -0.6725020284E-04
     1     2     3     4     5     6     7     8
     2     9    10     3     6    11    12     7
 VARIABLES = X,Y,Z,DU1,DU2,DU3,U1,U2,U3,S11,S22,S33,S12,S13,S23
 ZONE, T="0.2000D+00" F=FEPOINT, I=   12 J=    2 ET=BRICK
   0.0000000000E+00   0.0000000000E+00   0.6800437645E-04   0.0000000000E+00   0.0000000000E+00   0.1635131465E-04   0.0000000000E+00   0.0000000000E+00   0.5165306179E-04   0.9695218181E+00   0.1413296596E+00   0.1222760434E+00  -0.1579278866E-01   0.1662800656E-01  -0.1662592133E-03
   0.1000882298E+01   0.0000000000E+00   0.2003631242E-03   0.6626041615E-04   0.0000000000E+00   0.2475129359E-05   0.8160379806E-03   0.0000000000E+00   0.1978879948E-03   0.8884065508E+00  -0.3358845297E-01  -0.8045004505E-01  -0.6383247055E-02   0.1575047816E-01  -0.3588346271E-04
   0.1000953432E+01   0.9996705691E+00   0.2001254986E-03   0.7679892150E-04  -0.2093728406E-04   0.2384862896E-05   0.8766332598E-03  -0.3084936177E-03   0.1977406357E-03   0.8909290355E+00  -0.3475332555E-01  -0.8180765725E-01  -0.2977220535E-01   0.1586540222E-01  -0.3618695104E-04
   0.0000000000E+00   0.9998678110E+00   0.6614009370E-04   0.0000000000E+00  -0.2596444642E-04   0.1588580499E-04   0.0000000000E+00  -0.1062245046E-03   0.5025428870E-04   0.9805464886E+00   0.1354698212E+00   0.1171112113E+00  -0.4043628685E-01   0.1667843513E-01  -0.1666500955E-03
   0.0000000000E+00   0.0000000000E+00   0.9999319956E+00   0.0000000000E+00   0.0000000000E+00  -0.1635131465E-04   0.0000000000E+00   0.0000000000E+00  -0.5165306179E-04   0.9695218180E+00   0.1413296596E+00   0.1222760434E+00  -0.1579278866E-01  -0.1662800656E-01   0.1662592131E-03
   0.1000882298E+01   0.0000000000E+00   0.9997996369E+00   0.6626041615E-04   0.0000000000E+00  -0.2475129358E-05   0.8160379806E-03   0.0000000000E+00  -0.1978879948E-03   0.8884065507E+00  -0.3358845297E-01  -0.8045004504E-01  -0.6383247055E-02  -0.1575047817E-01   0.3588346267E-04
   0.1000953432E+01   0.9996705691E+00   0.9997998745E+00   0.7679892150E-04  -0.2093728406E-04  -0.2384862897E-05   0.8766332598E-03  -0.3084936177E-03  -0.1977406357E-03   0.8909290355E+00  -0.3475332555E-01  -0.8180765724E-01  -0.2977220534E-01  -0.1586540222E-01   0.3618695275E-04
   0.0000000000E+00   0.9998678110E+00   0.9999338599E+00   0.0000000000E+00  -0.2596444642E-04  -0.1588580499E-04   0.0000000000E+00  -0.1062245046E-03  -0.5025428871E-04   0.9805464886E+00   0.1354698212E+00   0.1171112113E+00  -0.4043628684E-01  -0.1667843513E-01   0.1666500963E-03
   0.2002000000E+01   0.0000000000E+00   0.3416116614E-03   0.1000000000E-03   0.0000000000E+00  -0.8718211576E-05   0.1900000000E-02   0.0000000000E+00   0.3503298730E-03   0.7734681922E+00  -0.1954574846E+00  -0.2624021232E+00  -0.1310073483E-01   0.1408130722E-01   0.8086259373E-04
   0.2002000000E+01   0.9994663385E+00   0.3428289688E-03   0.1000000000E-03  -0.1809451975E-04  -0.8484918192E-05   0.1900000000E-02  -0.5155670239E-03   0.3513138870E-03   0.7687333395E+00  -0.1924610454E+00  -0.2606637098E+00  -0.3438047955E-01   0.1427905558E-01   0.8084979072E-04
   0.2002000000E+01   0.0000000000E+00   0.9996583883E+00   0.1000000000E-03   0.0000000000E+00   0.8718211577E-05   0.1900000000E-02   0.0000000000E+00  -0.3503298730E-03   0.7734681922E+00  -0.1954574846E+00  -0.2624021232E+00  -0.1310073483E-01  -0.1408130722E-01  -0.8086259374E-04
   0.2002000000E+01   0.9994663385E+00   0.9996571710E+00   0.1000000000E-03  -0.1809451975E-04   0.8484918192E-05   0.1900000000E-02  -0.5155670239E-03  -0.3513138870E-03   0.7687333395E+00  -0.1924610454E+00  -0.2606637097E+00  -0.3438047954E-01  -0.1427905558E-01  -0.8084978838E-04
     1     2     3     4     5     6     7     8
     2     9    10     3     6    11    12     7
