 VARIABLES = X,Y,Z,DU1,DU2,DU3,U1,U2,U3,S11,S22,S33,S12,S13,S23,vf
 ZONE, T="0.1000D+00" F=FEPOINT, I=   12 J=    2 ET=BRICK
   0.0000000000E+00   0.0000000000E+00   0.2859453211E-06   0.0000000000E+00   0.0000000000E+00   0.3173516899E-06   0.0000000000E+00   0.0000000000E+00  -0.3140636876E-07   0.2111260122E+00   0.2132599137E-01   0.4306049835E-02  -0.1079501063E-01   0.1080542546E-01  -0.2435015543E-05   0.0000000000E+00
   0.1000215395E+01   0.0000000000E+00   0.8650091968E-04   0.4952940003E-04   0.0000000000E+00   0.1728830639E-04   0.1658657952E-03   0.0000000000E+00   0.6921261329E-04   0.5441432821E+00   0.9603001425E-01   0.3823917899E-01  -0.1017128345E-01   0.1080637408E-01  -0.1571645487E-06   0.0000000000E+00
   0.1000220379E+01   0.9999038482E+00   0.8650092207E-04   0.5137515155E-04  -0.2082744148E-04   0.1728830821E-04   0.1690040749E-03  -0.7532440509E-04   0.6921261386E-04   0.5441430881E+00   0.9603035179E-01   0.3823903542E-01  -0.2159111473E-01   0.1080751753E-01  -0.2967763988E-06   0.0000000000E+00
   0.0000000000E+00   0.9999949740E+00   0.2585767243E-06   0.0000000000E+00  -0.2046902716E-05   0.3037182284E-06   0.0000000000E+00  -0.2979121844E-05  -0.4514150409E-07   0.2119551004E+00   0.2090710477E-01   0.3895848261E-02  -0.2221446459E-01   0.1080656708E-01  -0.2574647437E-05   0.0000000000E+00
   0.0000000000E+00   0.0000000000E+00   0.9999997141E+00   0.0000000000E+00   0.0000000000E+00  -0.3173516899E-06   0.0000000000E+00   0.0000000000E+00   0.3140636866E-07   0.2111260122E+00   0.2132599137E-01   0.4306049835E-02  -0.1079501063E-01  -0.1080542546E-01   0.2435015752E-05   0.0000000000E+00
   0.1000215395E+01   0.0000000000E+00   0.9999134991E+00   0.4952940002E-04   0.0000000000E+00  -0.1728830639E-04   0.1658657952E-03   0.0000000000E+00  -0.6921261329E-04   0.5441432821E+00   0.9603001424E-01   0.3823917899E-01  -0.1017128345E-01  -0.1080637409E-01   0.1571652553E-06   0.0000000000E+00
   0.1000220379E+01   0.9999038482E+00   0.9999134991E+00   0.5137515155E-04  -0.2082744148E-04  -0.1728830821E-04   0.1690040749E-03  -0.7532440508E-04  -0.6921261386E-04   0.5441430881E+00   0.9603035179E-01   0.3823903542E-01  -0.2159111473E-01  -0.1080751753E-01   0.2967779531E-06   0.0000000000E+00
   0.0000000000E+00   0.9999949740E+00   0.9999997414E+00   0.0000000000E+00  -0.2046902716E-05  -0.3037182285E-06   0.0000000000E+00  -0.2979121844E-05   0.4514150391E-07   0.2119551004E+00   0.2090710477E-01   0.3895848262E-02  -0.2221446459E-01  -0.1080656708E-01   0.2574647933E-05   0.0000000000E+00
   0.2001000000E+01   0.0000000000E+00   0.1727141372E-03   0.1000000000E-03   0.0000000000E+00   0.3425851980E-04   0.9000000000E-03   0.0000000000E+00   0.1384556174E-03   0.8771631930E+00   0.1707352895E+00   0.7216841471E-01  -0.1079610464E-01   0.1080732271E-01   0.2138985499E-05   0.0000000000E+00
   0.2001000000E+01   0.9998127251E+00   0.1727415098E-03   0.1000000000E-03  -0.3960688494E-04   0.3427215644E-04   0.9000000000E-03  -0.1476680380E-03   0.1384693533E-03   0.8763337047E+00   0.1711548390E+00   0.7257835346E-01  -0.2221631317E-01   0.1080846797E-01   0.1999395630E-05   0.0000000000E+00
   0.2001000000E+01   0.0000000000E+00   0.9998272859E+00   0.1000000000E-03   0.0000000000E+00  -0.3425851979E-04   0.9000000000E-03   0.0000000000E+00  -0.1384556174E-03   0.8771631930E+00   0.1707352895E+00   0.7216841471E-01  -0.1079610464E-01  -0.1080732271E-01  -0.2138984295E-05   0.0000000000E+00
   0.2001000000E+01   0.9998127251E+00   0.9998272585E+00   0.1000000000E-03  -0.3960688494E-04  -0.3427215644E-04   0.9000000000E-03  -0.1476680380E-03  -0.1384693533E-03   0.8763337047E+00   0.1711548390E+00   0.7257835346E-01  -0.2221631317E-01  -0.1080846797E-01  -0.1999393017E-05   0.0000000000E+00
     1     2     3     4     5     6     7     8
     2     9    10     3     6    11    12     7
 VARIABLES = X,Y,Z,DU1,DU2,DU3,U1,U2,U3,S11,S22,S33,S12,S13,S23,vf
 ZONE, T="0.2000D+00" F=FEPOINT, I=   12 J=    2 ET=BRICK
   0.0000000000E+00   0.0000000000E+00   0.6887104479E-04   0.0000000000E+00   0.0000000000E+00   0.1676828595E-04   0.0000000000E+00   0.0000000000E+00   0.5210275884E-04   0.9896317523E+00   0.1516055532E+00   0.1332363229E+00  -0.1549214221E-01   0.1612852559E-01  -0.1567466333E-03   0.0000000000E+00
   0.1000893413E+01   0.0000000000E+00   0.1969280911E-03   0.7011437456E-04   0.0000000000E+00   0.1353641297E-05   0.8232989095E-03   0.0000000000E+00   0.1955744498E-03   0.9543008741E+00  -0.4357393072E-01  -0.9338853855E-01  -0.6591213549E-02   0.1612947660E-01  -0.6994387649E-06   0.0000000000E+00
   0.1000964532E+01   0.9996723737E+00   0.1969292570E-03   0.8061521307E-04  -0.2033979829E-04   0.1353976452E-05   0.8839164100E-03  -0.3072865252E-03   0.1955752805E-03   0.9543001145E+00  -0.4357158049E-01  -0.9339012922E-01  -0.3098939948E-01   0.1620760178E-01  -0.1175805663E-05   0.0000000000E+00
   0.0000000000E+00   0.9998670247E+00   0.6700250470E-04   0.0000000000E+00  -0.2634391755E-04   0.1629981689E-04   0.0000000000E+00  -0.1066313457E-03   0.5070268780E-04   0.1001293375E+01   0.1454639470E+00   0.1277163061E+00  -0.3988877510E-01   0.1620661867E-01  -0.1572220858E-03   0.0000000000E+00
   0.0000000000E+00   0.0000000000E+00   0.9999311290E+00   0.0000000000E+00   0.0000000000E+00  -0.1676828595E-04   0.0000000000E+00   0.0000000000E+00  -0.5210275884E-04   0.9896317523E+00   0.1516055532E+00   0.1332363229E+00  -0.1549214221E-01  -0.1612852559E-01   0.1567466332E-03   0.0000000000E+00
   0.1000893413E+01   0.0000000000E+00   0.9998030719E+00   0.7011437456E-04   0.0000000000E+00  -0.1353641296E-05   0.8232989095E-03   0.0000000000E+00  -0.1955744498E-03   0.9543008741E+00  -0.4357393071E-01  -0.9338853855E-01  -0.6591213549E-02  -0.1612947661E-01   0.6994387490E-06   0.0000000000E+00
   0.1000964532E+01   0.9996723737E+00   0.9998030707E+00   0.8061521307E-04  -0.2033979829E-04  -0.1353976452E-05   0.8839164100E-03  -0.3072865252E-03  -0.1955752805E-03   0.9543001145E+00  -0.4357158049E-01  -0.9339012922E-01  -0.3098939948E-01  -0.1620760179E-01   0.1175807556E-05   0.0000000000E+00
   0.0000000000E+00   0.9998670247E+00   0.9999329975E+00   0.0000000000E+00  -0.2634391755E-04  -0.1629981690E-04   0.0000000000E+00  -0.1066313457E-03  -0.5070268780E-04   0.1001293375E+01   0.1454639470E+00   0.1277163061E+00  -0.3988877510E-01  -0.1620661867E-01   0.1572220866E-03   0.0000000000E+00
   0.2002000000E+01   0.0000000000E+00   0.3249605391E-03   0.1000000000E-03   0.0000000000E+00  -0.1406344634E-04   0.1900000000E-02   0.0000000000E+00   0.3390239854E-03   0.9189718744E+00  -0.2387546415E+00  -0.3200140517E+00  -0.1549725821E-01   0.1613042722E-01   0.1557658469E-03   0.0000000000E+00
   0.2002000000E+01   0.9994777436E+00   0.3268312818E-03   0.1000000000E-03  -0.1433524177E-04  -0.1359434021E-04   0.1900000000E-02  -0.5079211599E-03   0.3404256220E-03   0.9073083948E+00  -0.2326086746E+00  -0.3144965390E+00  -0.3989699703E-01   0.1620858450E-01   0.1552905977E-03   0.0000000000E+00
   0.2002000000E+01   0.0000000000E+00   0.9996750395E+00   0.1000000000E-03   0.0000000000E+00   0.1406344634E-04   0.1900000000E-02   0.0000000000E+00  -0.3390239854E-03   0.9189718744E+00  -0.2387546415E+00  -0.3200140517E+00  -0.1549725821E-01  -0.1613042723E-01  -0.1557658468E-03   0.0000000000E+00
   0.2002000000E+01   0.9994777436E+00   0.9996731687E+00   0.1000000000E-03  -0.1433524177E-04   0.1359434021E-04   0.1900000000E-02  -0.5079211599E-03  -0.3404256220E-03   0.9073083948E+00  -0.2326086746E+00  -0.3144965389E+00  -0.3989699702E-01  -0.1620858450E-01  -0.1552905948E-03   0.0000000000E+00
     1     2     3     4     5     6     7     8
     2     9    10     3     6    11    12     7
 VARIABLES = X,Y,Z,DU1,DU2,DU3,U1,U2,U3,S11,S22,S33,S12,S13,S23,vf
 ZONE, T="0.3000D+00" F=FEPOINT, I=   12 J=    2 ET=BRICK
   0.0000000000E+00   0.0000000000E+00   0.3602760163E-03   0.0000000000E+00   0.0000000000E+00   0.3153349481E-04   0.0000000000E+00   0.0000000000E+00   0.3287425215E-03   0.1566412805E+01  -0.2053635563E-01  -0.7393889522E-01   0.2280188773E-01  -0.1875692415E-01  -0.1178279687E-02   0.0000000000E+00
   0.1001520383E+01   0.0000000000E+00   0.2059720695E-03   0.6067544257E-04   0.0000000000E+00   0.7342647293E-05   0.1459708034E-02   0.0000000000E+00   0.1986294222E-03   0.1539942950E+01   0.2128149011E-01   0.1031712245E+00   0.4191596345E-01  -0.1875579105E-01   0.1718862392E-05   0.0000000000E+00
   0.1001673127E+01   0.9994791951E+00   0.2059780433E-03   0.6249591140E-04  -0.2099500525E-04   0.7342863936E-05   0.1610630945E-02  -0.4998098711E-03   0.1986351793E-03   0.1539941794E+01   0.2128301172E-01   0.1031708585E+00   0.4560640092E-01  -0.1816613414E-01   0.1787661173E-05   0.0000000000E+00
   0.0000000000E+00   0.9994497564E+00   0.3461710957E-03   0.0000000000E+00  -0.4642860871E-04   0.2963017761E-04   0.0000000000E+00  -0.5038150209E-03   0.3165409181E-03   0.1590321828E+01  -0.3484886474E-01  -0.8353540883E-01   0.2649124945E-01  -0.1816701006E-01  -0.1178190710E-02   0.0000000000E+00
   0.0000000000E+00   0.0000000000E+00   0.9996397240E+00   0.0000000000E+00   0.0000000000E+00  -0.3153349481E-04   0.0000000000E+00   0.0000000000E+00  -0.3287425215E-03   0.1566412805E+01  -0.2053635563E-01  -0.7393889522E-01   0.2280188773E-01   0.1875692415E-01   0.1178279686E-02   0.0000000000E+00
   0.1001520383E+01   0.0000000000E+00   0.9997940279E+00   0.6067544257E-04   0.0000000000E+00  -0.7342647292E-05   0.1459708034E-02   0.0000000000E+00  -0.1986294222E-03   0.1539942950E+01   0.2128149011E-01   0.1031712245E+00   0.4191596345E-01   0.1875579105E-01  -0.1718865514E-05   0.0000000000E+00
   0.1001673127E+01   0.9994791951E+00   0.9997940220E+00   0.6249591140E-04  -0.2099500525E-04  -0.7342863936E-05   0.1610630945E-02  -0.4998098711E-03  -0.1986351793E-03   0.1539941794E+01   0.2128301172E-01   0.1031708585E+00   0.4560640092E-01   0.1816613413E-01  -0.1787662967E-05   0.0000000000E+00
   0.0000000000E+00   0.9994497564E+00   0.9996538289E+00   0.0000000000E+00  -0.4642860871E-04  -0.2963017761E-04   0.0000000000E+00  -0.5038150209E-03  -0.3165409181E-03   0.1590321828E+01  -0.3484886474E-01  -0.8353540883E-01   0.2649124945E-01   0.1816701006E-01   0.1178190711E-02   0.0000000000E+00
   0.2003000000E+01   0.0000000000E+00   0.5164534645E-04   0.1000000000E-03   0.0000000000E+00  -0.1684690661E-04   0.2900000000E-02   0.0000000000E+00   0.6849225307E-04   0.1513474749E+01   0.6310471163E-01   0.2802743148E+00   0.2280451422E-01  -0.1875465870E-01   0.1180433538E-02   0.0000000000E+00
   0.2003000000E+01   0.9995086276E+00   0.6576238561E-04   0.1000000000E-03   0.4434296662E-05  -0.1494294242E-04   0.2900000000E-02  -0.4958067009E-03   0.8070532803E-04   0.1489563084E+01   0.7741993691E-01   0.2898707539E+00   0.2649602761E-01  -0.1816525889E-01   0.1180522800E-02   0.0000000000E+00
   0.2003000000E+01   0.0000000000E+00   0.9999483547E+00   0.1000000000E-03   0.0000000000E+00   0.1684690661E-04   0.2900000000E-02   0.0000000000E+00  -0.6849225304E-04   0.1513474749E+01   0.6310471163E-01   0.2802743147E+00   0.2280451422E-01   0.1875465870E-01  -0.1180433543E-02   0.0000000000E+00
   0.2003000000E+01   0.9995086276E+00   0.9999342376E+00   0.1000000000E-03   0.4434296661E-05   0.1494294242E-04   0.2900000000E-02  -0.4958067009E-03  -0.8070532802E-04   0.1489563084E+01   0.7741993690E-01   0.2898707538E+00   0.2649602761E-01   0.1816525889E-01  -0.1180522804E-02   0.0000000000E+00
     1     2     3     4     5     6     7     8
     2     9    10     3     6    11    12     7
 VARIABLES = X,Y,Z,DU1,DU2,DU3,U1,U2,U3,S11,S22,S33,S12,S13,S23,vf
 ZONE, T="0.4000D+00" F=FEPOINT, I=   12 J=    2 ET=BRICK
   0.0000000000E+00   0.0000000000E+00   0.4640421052E-03   0.0000000000E+00   0.0000000000E+00  -0.9712265217E-05   0.0000000000E+00   0.0000000000E+00   0.4737543704E-03   0.2095843819E+01  -0.1307128852E+00  -0.1559927087E+00   0.2096195496E-01  -0.1440001579E-01  -0.2931889195E-02   0.0000000000E+00
   0.1002156242E+01   0.0000000000E+00   0.3375246987E-03   0.6170934291E-04   0.0000000000E+00   0.1217873217E-04   0.2094532329E-02   0.0000000000E+00   0.3253459666E-03   0.1950538492E+01  -0.8434987716E-01  -0.5943237858E-01   0.2566787693E-01  -0.1440078456E-01   0.2047288339E-06   0.0000000000E+00
   0.1002193894E+01   0.9992918469E+00   0.3375256380E-03   0.4058608928E-04  -0.1311795010E-04   0.1217793242E-04   0.2153307694E-02  -0.6950351528E-03   0.3253477056E-03   0.1950537157E+01  -0.8434888054E-01  -0.5943204028E-01   0.4191753449E-01  -0.1293492058E-01   0.1522841578E-06   0.0000000000E+00
   0.0000000000E+00   0.9991622351E+00   0.4289766882E-03   0.0000000000E+00  -0.1069155879E-04  -0.1138998732E-04   0.0000000000E+00  -0.8270732933E-03   0.4403666755E-03   0.2098211758E+01  -0.1377603952E+00  -0.1513131381E+00   0.3721560663E-01  -0.1293377794E-01  -0.2931899158E-02   0.0000000000E+00
   0.0000000000E+00   0.0000000000E+00   0.9995359579E+00   0.0000000000E+00   0.0000000000E+00   0.9712265216E-05   0.0000000000E+00   0.0000000000E+00  -0.4737543704E-03   0.2095843819E+01  -0.1307128852E+00  -0.1559927087E+00   0.2096195496E-01   0.1440001581E-01   0.2931889192E-02   0.0000000000E+00
   0.1002156242E+01   0.0000000000E+00   0.9996624753E+00   0.6170934291E-04   0.0000000000E+00  -0.1217873217E-04   0.2094532329E-02   0.0000000000E+00  -0.3253459665E-03   0.1950538492E+01  -0.8434987715E-01  -0.5943237858E-01   0.2566787693E-01   0.1440078457E-01  -0.2047315359E-06   0.0000000000E+00
   0.1002193894E+01   0.9992918469E+00   0.9996624744E+00   0.4058608928E-04  -0.1311795010E-04  -0.1217793242E-04   0.2153307694E-02  -0.6950351528E-03  -0.3253477056E-03   0.1950537157E+01  -0.8434888054E-01  -0.5943204028E-01   0.4191753449E-01   0.1293492059E-01  -0.1522858724E-06   0.0000000000E+00
   0.0000000000E+00   0.9991622351E+00   0.9995710233E+00   0.0000000000E+00  -0.1069155879E-04   0.1138998732E-04   0.0000000000E+00  -0.8270732933E-03  -0.4403666755E-03   0.2098211758E+01  -0.1377603952E+00  -0.1513131381E+00   0.3721560663E-01   0.1293377796E-01   0.2931899156E-02   0.0000000000E+00
   0.2004000000E+01   0.0000000000E+00   0.2109794919E-03   0.1000000000E-03   0.0000000000E+00   0.3406848984E-04   0.3900000000E-02   0.0000000000E+00   0.1769110021E-03   0.1805239538E+01  -0.3799834603E-01   0.3713305650E-01   0.2095558143E-01  -0.1440155365E-01   0.2931782287E-02   0.0000000000E+00
   0.2004000000E+01   0.9994214061E+00   0.2460547905E-03   0.1000000000E-03  -0.1554778282E-04   0.3574582539E-04   0.3900000000E-02  -0.5630460859E-03   0.2103089651E-03   0.1802868656E+01  -0.3094911247E-01   0.3245470450E-01   0.3720124580E-01  -0.1293606347E-01   0.2931772609E-02   0.0000000000E+00
   0.2004000000E+01   0.0000000000E+00   0.9997890205E+00   0.1000000000E-03   0.0000000000E+00  -0.3406848984E-04   0.3900000000E-02   0.0000000000E+00  -0.1769110020E-03   0.1805239538E+01  -0.3799834602E-01   0.3713305650E-01   0.2095558143E-01   0.1440155366E-01  -0.2931782289E-02   0.0000000000E+00
   0.2004000000E+01   0.9994214061E+00   0.9997539452E+00   0.1000000000E-03  -0.1554778282E-04  -0.3574582539E-04   0.3900000000E-02  -0.5630460859E-03  -0.2103089651E-03   0.1802868656E+01  -0.3094911246E-01   0.3245470450E-01   0.3720124580E-01   0.1293606348E-01  -0.2931772610E-02   0.0000000000E+00
     1     2     3     4     5     6     7     8
     2     9    10     3     6    11    12     7
 VARIABLES = X,Y,Z,DU1,DU2,DU3,U1,U2,U3,S11,S22,S33,S12,S13,S23,vf
 ZONE, T="0.5000D+00" F=FEPOINT, I=   12 J=    2 ET=BRICK
   0.0000000000E+00   0.0000000000E+00   0.3340194116E-03   0.0000000000E+00   0.0000000000E+00  -0.4401037444E-05   0.0000000000E+00   0.0000000000E+00   0.3384204490E-03   0.2598375931E+01   0.5481757500E-01   0.1566211461E+00  -0.1294963713E-01   0.1074854434E-01  -0.2518535666E-02   0.0000000000E+00
   0.1002606959E+01   0.0000000000E+00   0.4096837246E-03   0.3097055312E-04   0.0000000000E+00   0.6580966995E-05   0.2575988785E-02   0.0000000000E+00   0.4031027576E-03   0.2527074406E+01   0.5807944617E-01   0.3340586854E-01  -0.3602778182E-01   0.1074687701E-01   0.3609926089E-06   0.0000000000E+00
   0.1002422363E+01   0.9992134370E+00   0.4096743677E-03   0.1302449879E-04  -0.8357396124E-05   0.6579544541E-05   0.2409338444E-02  -0.7782055756E-03   0.4030948232E-03   0.2527074486E+01   0.5807850504E-01   0.3340672969E-01  -0.2590525322E-01   0.1200641681E-01   0.8459510425E-06   0.0000000000E+00
   0.0000000000E+00   0.9991327060E+00   0.3038895838E-03   0.0000000000E+00  -0.4955139699E-05  -0.1614390663E-05   0.0000000000E+00  -0.8623388949E-03   0.3055039745E-03   0.2564251477E+01   0.6684148282E-01   0.1787216923E+00  -0.2826936834E-02   0.1200756725E-01  -0.2518065476E-02   0.0000000000E+00
   0.0000000000E+00   0.0000000000E+00   0.9996659806E+00   0.0000000000E+00   0.0000000000E+00   0.4401037445E-05   0.0000000000E+00   0.0000000000E+00  -0.3384204490E-03   0.2598375931E+01   0.5481757499E-01   0.1566211461E+00  -0.1294963713E-01  -0.1074854433E-01   0.2518535664E-02   0.0000000000E+00
   0.1002606959E+01   0.0000000000E+00   0.9995903163E+00   0.3097055312E-04   0.0000000000E+00  -0.6580966995E-05   0.2575988785E-02   0.0000000000E+00  -0.4031027576E-03   0.2527074406E+01   0.5807944617E-01   0.3340586854E-01  -0.3602778181E-01  -0.1074687699E-01  -0.3609924708E-06   0.0000000000E+00
   0.1002422363E+01   0.9992134370E+00   0.9995903256E+00   0.1302449879E-04  -0.8357396125E-05  -0.6579544540E-05   0.2409338444E-02  -0.7782055756E-03  -0.4030948232E-03   0.2527074486E+01   0.5807850503E-01   0.3340672968E-01  -0.2590525321E-01  -0.1200641679E-01  -0.8459508372E-06   0.0000000000E+00
   0.0000000000E+00   0.9991327060E+00   0.9996961104E+00   0.0000000000E+00  -0.4955139700E-05   0.1614390666E-05   0.0000000000E+00  -0.8623388949E-03  -0.3055039745E-03   0.2564251477E+01   0.6684148282E-01   0.1787216923E+00  -0.2826936832E-02  -0.1200756723E-01   0.2518065474E-02   0.0000000000E+00
   0.2005000000E+01   0.0000000000E+00   0.4853262659E-03   0.1000000000E-03   0.0000000000E+00   0.1756491766E-04   0.4900000000E-02   0.0000000000E+00   0.4677613482E-03   0.2455771874E+01   0.6133841906E-01  -0.8980550332E-01  -0.1295561626E-01   0.1074520908E-01   0.2519811168E-02   0.0000000000E+00
   0.2005000000E+01   0.9992941413E+00   0.5154559763E-03   0.1000000000E-03  -0.1175220203E-04   0.1477610109E-04   0.4900000000E-02  -0.6941064895E-03   0.5006798752E-03   0.2489897723E+01   0.4931385782E-01  -0.1119067918E+00  -0.2833259000E-02   0.1200526595E-01   0.2520281658E-02   0.0000000000E+00
   0.2005000000E+01   0.0000000000E+00   0.9995146737E+00   0.1000000000E-03   0.0000000000E+00  -0.1756491766E-04   0.4900000000E-02   0.0000000000E+00  -0.4677613482E-03   0.2455771874E+01   0.6133841906E-01  -0.8980550332E-01  -0.1295561626E-01  -0.1074520907E-01  -0.2519811166E-02   0.0000000000E+00
   0.2005000000E+01   0.9992941413E+00   0.9994845440E+00   0.1000000000E-03  -0.1175220203E-04  -0.1477610109E-04   0.4900000000E-02  -0.6941064895E-03  -0.5006798751E-03   0.2489897723E+01   0.4931385782E-01  -0.1119067918E+00  -0.2833258998E-02  -0.1200526594E-01  -0.2520281654E-02   0.0000000000E+00
     1     2     3     4     5     6     7     8
     2     9    10     3     6    11    12     7
 VARIABLES = X,Y,Z,DU1,DU2,DU3,U1,U2,U3,S11,S22,S33,S12,S13,S23,vf
 ZONE, T="0.6000D+00" F=FEPOINT, I=   12 J=    2 ET=BRICK
   0.0000000000E+00   0.0000000000E+00   0.4209496510E-03   0.0000000000E+00   0.0000000000E+00   0.1223438599E-04   0.0000000000E+00   0.0000000000E+00   0.4087152650E-03   0.2776031120E+01  -0.8764376553E-01  -0.5032818168E-01  -0.2578575662E-01   0.1058356077E-01   0.2097124132E-02   0.0000000000E+00
   0.1002923472E+01   0.0000000000E+00   0.5136879822E-03   0.4091919218E-04   0.0000000000E+00   0.1121071823E-04   0.2882552315E-02   0.0000000000E+00   0.5024772639E-03   0.2993987568E+01   0.2653448208E-01  -0.3112577582E-01  -0.5413796844E-01   0.1058336715E-01  -0.8101885367E-06   0.0000000000E+00
   0.1002696502E+01   0.9990492456E+00   0.5136703571E-03   0.4926680384E-04  -0.2180773637E-04   0.1121117993E-04   0.2647234744E-02  -0.9289466656E-03   0.5024591771E-03   0.2993978783E+01   0.2653506984E-01  -0.3111757862E-01  -0.5156019930E-01   0.9534373480E-02  -0.6442212780E-06   0.0000000000E+00
   0.0000000000E+00   0.9990287009E+00   0.4460308804E-03   0.0000000000E+00  -0.1060163132E-04   0.1937486170E-04   0.0000000000E+00  -0.9606975138E-03   0.4266560187E-03   0.2741010381E+01  -0.6594057309E-01  -0.3701063565E-01  -0.2321172241E-01   0.9534475016E-02   0.2097341517E-02   0.0000000000E+00
   0.0000000000E+00   0.0000000000E+00   0.9995790503E+00   0.0000000000E+00   0.0000000000E+00  -0.1223438599E-04   0.0000000000E+00   0.0000000000E+00  -0.4087152650E-03   0.2776031120E+01  -0.8764376552E-01  -0.5032818167E-01  -0.2578575662E-01  -0.1058356078E-01  -0.2097124128E-02   0.0000000000E+00
   0.1002923472E+01   0.0000000000E+00   0.9994863120E+00   0.4091919218E-04   0.0000000000E+00  -0.1121071823E-04   0.2882552315E-02   0.0000000000E+00  -0.5024772639E-03   0.2993987567E+01   0.2653448208E-01  -0.3112577582E-01  -0.5413796844E-01  -0.1058336716E-01   0.8101915305E-06   0.0000000000E+00
   0.1002696502E+01   0.9990492456E+00   0.9994863296E+00   0.4926680384E-04  -0.2180773637E-04  -0.1121117993E-04   0.2647234744E-02  -0.9289466656E-03  -0.5024591771E-03   0.2993978782E+01   0.2653506984E-01  -0.3111757861E-01  -0.5156019930E-01  -0.9534373487E-02   0.6442240020E-06   0.0000000000E+00
   0.0000000000E+00   0.9990287009E+00   0.9995539691E+00   0.0000000000E+00  -0.1060163132E-04  -0.1937486169E-04   0.0000000000E+00  -0.9606975138E-03  -0.4266560186E-03   0.2741010381E+01  -0.6594057309E-01  -0.3701063565E-01  -0.2321172241E-01  -0.9534475021E-02  -0.2097341513E-02   0.0000000000E+00
   0.2006000000E+01   0.0000000000E+00   0.6064257076E-03   0.1000000000E-03   0.0000000000E+00   0.1018897517E-04   0.5900000000E-02   0.0000000000E+00   0.5962367324E-03   0.3211940839E+01   0.1407237497E+00  -0.1193121339E-01  -0.2577444228E-01   0.1058317320E-01  -0.2099035947E-02   0.0000000000E+00
   0.2006000000E+01   0.9990698049E+00   0.5813302133E-03   0.1000000000E-03  -0.3301701159E-04   0.3049443674E-05   0.5900000000E-02  -0.8971780692E-03   0.5782807696E-03   0.3246944598E+01   0.1190223238E+00  -0.2523354740E-01  -0.2319293651E-01   0.9534271724E-02  -0.2098818063E-02   0.0000000000E+00
   0.2006000000E+01   0.0000000000E+00   0.9993935743E+00   0.1000000000E-03   0.0000000000E+00  -0.1018897517E-04   0.5900000000E-02   0.0000000000E+00  -0.5962367324E-03   0.3211940838E+01   0.1407237497E+00  -0.1193121339E-01  -0.2577444228E-01  -0.1058317321E-01   0.2099035948E-02   0.0000000000E+00
   0.2006000000E+01   0.9990698049E+00   0.9994186698E+00   0.1000000000E-03  -0.3301701159E-04  -0.3049443677E-05   0.5900000000E-02  -0.8971780692E-03  -0.5782807696E-03   0.3246944598E+01   0.1190223238E+00  -0.2523354740E-01  -0.2319293651E-01  -0.9534271729E-02   0.2098818064E-02   0.0000000000E+00
     1     2     3     4     5     6     7     8
     2     9    10     3     6    11    12     7
 VARIABLES = X,Y,Z,DU1,DU2,DU3,U1,U2,U3,S11,S22,S33,S12,S13,S23,vf
 ZONE, T="0.7000D+00" F=FEPOINT, I=   12 J=    2 ET=BRICK
   0.0000000000E+00   0.0000000000E+00   0.5018746376E-03   0.0000000000E+00   0.0000000000E+00   0.8690611360E-05   0.0000000000E+00   0.0000000000E+00   0.4931840262E-03   0.3480019877E+01   0.5777209297E-01   0.5906753555E-01  -0.1512525337E-01   0.5409840293E-02   0.7389136099E-02   0.0000000000E+00
   0.1003467883E+01   0.0000000000E+00   0.5744375123E-03   0.5932433748E-04   0.0000000000E+00   0.2814331718E-05   0.3408558936E-02   0.0000000000E+00   0.5716231806E-03   0.3486756801E+01  -0.1705364682E-01  -0.4545312781E-02  -0.1663661458E-01   0.5409325320E-02   0.4972060952E-06   0.0000000000E+00
   0.1003455820E+01   0.9988345115E+00   0.5744382182E-03   0.8857074075E-04  -0.1992231918E-04   0.2816528546E-05   0.3367249505E-02  -0.1145566188E-02   0.5716216896E-03   0.3486757385E+01  -0.1705314762E-01  -0.4546396186E-02  -0.3026068149E-01   0.1715200957E-02   0.8097242170E-06   0.0000000000E+00
   0.0000000000E+00   0.9989430733E+00   0.5902250301E-03   0.0000000000E+00  -0.1146744616E-04   0.1295949391E-04   0.0000000000E+00  -0.1045459299E-02   0.5772655362E-03   0.3487863674E+01   0.6862857744E-01   0.4036725380E-01  -0.2874417543E-01   0.1715892757E-02   0.7389662304E-02   0.0000000000E+00
   0.0000000000E+00   0.0000000000E+00   0.9994981254E+00   0.0000000000E+00   0.0000000000E+00  -0.8690611359E-05   0.0000000000E+00   0.0000000000E+00  -0.4931840262E-03   0.3480019877E+01   0.5777209297E-01   0.5906753555E-01  -0.1512525337E-01  -0.5409840307E-02  -0.7389136094E-02   0.0000000000E+00
   0.1003467883E+01   0.0000000000E+00   0.9994255625E+00   0.5932433748E-04   0.0000000000E+00  -0.2814331718E-05   0.3408558936E-02   0.0000000000E+00  -0.5716231806E-03   0.3486756801E+01  -0.1705364682E-01  -0.4545312780E-02  -0.1663661458E-01  -0.5409325340E-02  -0.4972045077E-06   0.0000000000E+00
   0.1003455820E+01   0.9988345115E+00   0.9994255618E+00   0.8857074075E-04  -0.1992231918E-04  -0.2816528546E-05   0.3367249505E-02  -0.1145566188E-02  -0.5716216896E-03   0.3486757385E+01  -0.1705314762E-01  -0.4546396185E-02  -0.3026068149E-01  -0.1715200982E-02  -0.8097237759E-06   0.0000000000E+00
   0.0000000000E+00   0.9989430733E+00   0.9994097750E+00   0.0000000000E+00  -0.1146744616E-04  -0.1295949391E-04   0.0000000000E+00  -0.1045459299E-02  -0.5772655362E-03   0.3487863674E+01   0.6862857744E-01   0.4036725380E-01  -0.2874417543E-01  -0.1715892775E-02  -0.7389662302E-02   0.0000000000E+00
   0.2007000000E+01   0.0000000000E+00   0.6470115136E-03   0.1000000000E-03   0.0000000000E+00  -0.3061112711E-05   0.6900000000E-02   0.0000000000E+00   0.6500726263E-03   0.3493506314E+01  -0.9189175278E-01  -0.6815838436E-01  -0.1513542938E-01   0.5408809987E-02  -0.7388022813E-02   0.0000000000E+00
   0.2007000000E+01   0.9987258770E+00   0.5586827830E-03   0.1000000000E-03  -0.2838503060E-04  -0.7325753459E-05   0.6900000000E-02  -0.1245738003E-02   0.5660085365E-03   0.3485664289E+01  -0.1027466319E+00  -0.4946148013E-01  -0.2876464140E-01   0.1714508766E-02  -0.7387496228E-02   0.0000000000E+00
   0.2007000000E+01   0.0000000000E+00   0.9993529885E+00   0.1000000000E-03   0.0000000000E+00   0.3061112711E-05   0.6900000000E-02   0.0000000000E+00  -0.6500726263E-03   0.3493506314E+01  -0.9189175278E-01  -0.6815838436E-01  -0.1513542938E-01  -0.5408810001E-02   0.7388022811E-02   0.0000000000E+00
   0.2007000000E+01   0.9987258770E+00   0.9994413172E+00   0.1000000000E-03  -0.2838503060E-04   0.7325753458E-05   0.6900000000E-02  -0.1245738003E-02  -0.5660085365E-03   0.3485664289E+01  -0.1027466319E+00  -0.4946148013E-01  -0.2876464139E-01  -0.1714508784E-02   0.7387496226E-02   0.0000000000E+00
     1     2     3     4     5     6     7     8
     2     9    10     3     6    11    12     7
 VARIABLES = X,Y,Z,DU1,DU2,DU3,U1,U2,U3,S11,S22,S33,S12,S13,S23,vf
 ZONE, T="0.8000D+00" F=FEPOINT, I=   12 J=    2 ET=BRICK
   0.0000000000E+00   0.0000000000E+00   0.6948112074E-03   0.0000000000E+00   0.0000000000E+00   0.2540007049E-04   0.0000000000E+00   0.0000000000E+00   0.6694111369E-03   0.4092030499E+01   0.4980917012E-01  -0.4810021885E-02   0.2380404813E-01  -0.1046246374E-01   0.6540626496E-02   0.0000000000E+00
   0.1003986052E+01   0.0000000000E+00   0.6374665650E-03   0.4530662238E-04   0.0000000000E+00   0.1044434262E-04   0.3940745139E-02   0.0000000000E+00   0.6270222224E-03   0.3994910868E+01  -0.2538940865E-01   0.3416073613E-01   0.5521770318E-01  -0.1046154094E-01   0.3894126055E-05   0.0000000000E+00
   0.1004237765E+01   0.9986459643E+00   0.6374834879E-03   0.6333840113E-04  -0.1778630568E-04   0.1044533860E-04   0.4174426215E-02  -0.1336249422E-02   0.6270381493E-03   0.3994910538E+01  -0.2538358961E-01   0.3415524752E-01   0.4759913786E-01  -0.1372957753E-01   0.4618796044E-05   0.0000000000E+00
   0.0000000000E+00   0.9987066316E+00   0.7729755087E-03   0.0000000000E+00  -0.3102247157E-04   0.1950227409E-04   0.0000000000E+00  -0.1262345950E-02   0.7534732346E-03   0.4142636048E+01   0.3758627683E-01  -0.4319267837E-01   0.1618895272E-01  -0.1373131798E-01   0.6541371529E-02   0.0000000000E+00
   0.0000000000E+00   0.0000000000E+00   0.9993051888E+00   0.0000000000E+00   0.0000000000E+00  -0.2540007049E-04   0.0000000000E+00   0.0000000000E+00  -0.6694111368E-03   0.4092030499E+01   0.4980917011E-01  -0.4810021884E-02   0.2380404813E-01   0.1046246374E-01  -0.6540626497E-02   0.0000000000E+00
   0.1003986052E+01   0.0000000000E+00   0.9993625334E+00   0.4530662238E-04   0.0000000000E+00  -0.1044434262E-04   0.3940745139E-02   0.0000000000E+00  -0.6270222223E-03   0.3994910868E+01  -0.2538940865E-01   0.3416073613E-01   0.5521770317E-01   0.1046154093E-01  -0.3894126972E-05   0.0000000000E+00
   0.1004237765E+01   0.9986459643E+00   0.9993625165E+00   0.6333840113E-04  -0.1778630568E-04  -0.1044533860E-04   0.4174426215E-02  -0.1336249422E-02  -0.6270381493E-03   0.3994910538E+01  -0.2538358961E-01   0.3415524752E-01   0.4759913785E-01   0.1372957752E-01  -0.4618798919E-05   0.0000000000E+00
   0.0000000000E+00   0.9987066316E+00   0.9992270245E+00   0.0000000000E+00  -0.3102247157E-04  -0.1950227410E-04   0.0000000000E+00  -0.1262345950E-02  -0.7534732345E-03   0.4142636048E+01   0.3758627682E-01  -0.4319267837E-01   0.1618895271E-01   0.1373131797E-01  -0.6541371533E-02   0.0000000000E+00
   0.2008000000E+01   0.0000000000E+00   0.5801505755E-03   0.1000000000E-03   0.0000000000E+00  -0.4509253145E-05   0.7900000000E-02   0.0000000000E+00   0.5846598286E-03   0.3897802075E+01  -0.1005923613E+00   0.7312503092E-01   0.2379509028E-01  -0.1046061951E-01  -0.6532099566E-02   0.0000000000E+00
   0.2008000000E+01   0.9985851989E+00   0.5020342224E-03   0.1000000000E-03  -0.4550105403E-05   0.1389304789E-05   0.7900000000E-02  -0.1410251031E-02   0.5006449176E-03   0.3847197914E+01  -0.8835579050E-01   0.1114926214E+00   0.1617305451E-01  -0.1372783876E-01  -0.6531354395E-02   0.0000000000E+00
   0.2008000000E+01   0.0000000000E+00   0.9994198494E+00   0.1000000000E-03   0.0000000000E+00   0.4509253147E-05   0.7900000000E-02   0.0000000000E+00  -0.5846598286E-03   0.3897802075E+01  -0.1005923613E+00   0.7312503092E-01   0.2379509028E-01   0.1046061951E-01   0.6532099565E-02   0.0000000000E+00
   0.2008000000E+01   0.9985851989E+00   0.9994979658E+00   0.1000000000E-03  -0.4550105403E-05  -0.1389304786E-05   0.7900000000E-02  -0.1410251031E-02  -0.5006449176E-03   0.3847197914E+01  -0.8835579050E-01   0.1114926214E+00   0.1617305451E-01   0.1372783875E-01   0.6531354394E-02   0.0000000000E+00
     1     2     3     4     5     6     7     8
     2     9    10     3     6    11    12     7
 VARIABLES = X,Y,Z,DU1,DU2,DU3,U1,U2,U3,S11,S22,S33,S12,S13,S23,vf
 ZONE, T="0.9000D+00" F=FEPOINT, I=   12 J=    2 ET=BRICK
   0.0000000000E+00   0.0000000000E+00   0.8436606420E-03   0.0000000000E+00   0.0000000000E+00   0.2063920337E-05   0.0000000000E+00   0.0000000000E+00   0.8415967217E-03   0.4488516525E+01  -0.5033736056E-01  -0.1206804984E+00   0.3350914995E-01  -0.1094673365E-01  -0.2388116016E-02   0.0000000000E+00
   0.1004452019E+01   0.0000000000E+00   0.7469073626E-03   0.5088269041E-04   0.0000000000E+00   0.9257112006E-05   0.4401136252E-02   0.0000000000E+00   0.7376502506E-03   0.4471972077E+01  -0.2641147537E-01  -0.2792331250E-01   0.6232581870E-01  -0.1094577383E-01   0.2379502499E-05   0.0000000000E+00
   0.1004683036E+01   0.9985081901E+00   0.7469198894E-03   0.3188877659E-04  -0.1035717553E-04   0.9255459392E-05   0.4651147543E-02  -0.1481452751E-02   0.7376644300E-03   0.4471972055E+01  -0.2640934675E-01  -0.2792541914E-01   0.6701026663E-01  -0.9750966625E-02   0.2424113959E-05   0.0000000000E+00
   0.0000000000E+00   0.9984708226E+00   0.8151085448E-03   0.0000000000E+00  -0.1331845964E-04  -0.1105000801E-04   0.0000000000E+00  -0.1515858948E-02   0.8261585528E-03   0.4523756348E+01  -0.7273508978E-01  -0.1335225929E+00   0.3819594615E-01  -0.9751294794E-02  -0.2388032044E-02   0.0000000000E+00
   0.0000000000E+00   0.0000000000E+00   0.9991563394E+00   0.0000000000E+00   0.0000000000E+00  -0.2063920337E-05   0.0000000000E+00   0.0000000000E+00  -0.8415967217E-03   0.4488516524E+01  -0.5033736056E-01  -0.1206804984E+00   0.3350914995E-01   0.1094673366E-01   0.2388116013E-02   0.0000000000E+00
   0.1004452019E+01   0.0000000000E+00   0.9992530926E+00   0.5088269041E-04   0.0000000000E+00  -0.9257112006E-05   0.4401136252E-02   0.0000000000E+00  -0.7376502506E-03   0.4471972077E+01  -0.2641147537E-01  -0.2792331250E-01   0.6232581869E-01   0.1094577385E-01  -0.2379502263E-05   0.0000000000E+00
   0.1004683036E+01   0.9985081901E+00   0.9992530801E+00   0.3188877660E-04  -0.1035717553E-04  -0.9255459391E-05   0.4651147543E-02  -0.1481452751E-02  -0.7376644299E-03   0.4471972054E+01  -0.2640934675E-01  -0.2792541914E-01   0.6701026662E-01   0.9750966648E-02  -0.2424115134E-05   0.0000000000E+00
   0.0000000000E+00   0.9984708226E+00   0.9991848915E+00   0.0000000000E+00  -0.1331845963E-04   0.1105000800E-04   0.0000000000E+00  -0.1515858948E-02  -0.8261585528E-03   0.4523756348E+01  -0.7273508979E-01  -0.1335225929E+00   0.3819594615E-01   0.9751294806E-02   0.2388032039E-02   0.0000000000E+00
   0.2009000000E+01   0.0000000000E+00   0.6501837425E-03   0.1000000000E-03   0.0000000000E+00   0.1644857978E-04   0.8900000000E-02   0.0000000000E+00   0.6337351627E-03   0.4455438037E+01  -0.2487407858E-02   0.6482528279E-01   0.3350111911E-01  -0.1094481515E-01   0.2391379862E-02   0.0000000000E+00
   0.2009000000E+01   0.9985454792E+00   0.6787580110E-03   0.1000000000E-03  -0.7391336483E-05   0.2955761210E-04   0.8900000000E-02  -0.1447129503E-02   0.6492003989E-03   0.4420197716E+01   0.1991413711E-01   0.7766405923E-01   0.3818321949E-01  -0.9750639234E-02   0.2391464441E-02   0.0000000000E+00
   0.2009000000E+01   0.0000000000E+00   0.9993498163E+00   0.1000000000E-03   0.0000000000E+00  -0.1644857978E-04   0.8900000000E-02   0.0000000000E+00  -0.6337351627E-03   0.4455438037E+01  -0.2487407854E-02   0.6482528280E-01   0.3350111911E-01   0.1094481516E-01  -0.2391379857E-02   0.0000000000E+00
   0.2009000000E+01   0.9985454792E+00   0.9993212420E+00   0.1000000000E-03  -0.7391336484E-05  -0.2955761210E-04   0.8900000000E-02  -0.1447129503E-02  -0.6492003989E-03   0.4420197715E+01   0.1991413711E-01   0.7766405924E-01   0.3818321949E-01   0.9750639246E-02  -0.2391464438E-02   0.0000000000E+00
     1     2     3     4     5     6     7     8
     2     9    10     3     6    11    12     7
 VARIABLES = X,Y,Z,DU1,DU2,DU3,U1,U2,U3,S11,S22,S33,S12,S13,S23,vf
 ZONE, T="0.1000D+01" F=FEPOINT, I=   12 J=    2 ET=BRICK
   0.0000000000E+00   0.0000000000E+00   0.8142022923E-03   0.0000000000E+00   0.0000000000E+00   0.5862399539E-06   0.0000000000E+00   0.0000000000E+00   0.8136160523E-03   0.5011225718E+01   0.7092546180E-01   0.9691190704E-01  -0.7089061079E-02   0.7571820125E-02  -0.1152851979E-01   0.0000000000E+00
   0.1004992631E+01   0.0000000000E+00   0.8285952439E-03   0.5388581826E-04   0.0000000000E+00   0.8701432171E-05   0.4938744687E-02   0.0000000000E+00   0.8198938117E-03   0.5007455870E+01   0.4996590955E-01   0.1038584267E-01  -0.1542745852E-01   0.7570313995E-02  -0.6339252621E-06   0.0000000000E+00
   0.1004925754E+01   0.9983953640E+00   0.8285868595E-03   0.2205381717E-04  -0.1459098157E-04   0.8699385634E-05   0.4903700051E-02  -0.1590045046E-02   0.8198874739E-03   0.5007454794E+01   0.4996412024E-01   0.1038870809E-01  -0.1417809641E-01   0.1333406572E-01  -0.2668197357E-07   0.0000000000E+00
   0.0000000000E+00   0.9983854100E+00   0.6764235612E-03   0.0000000000E+00  -0.1101053849E-04  -0.6323858342E-05   0.0000000000E+00  -0.1603579486E-02   0.6827474195E-03   0.4984736191E+01   0.6111289731E-01   0.1332139986E+00  -0.5840060309E-02   0.1333511695E-01  -0.1152749329E-01   0.0000000000E+00
   0.0000000000E+00   0.0000000000E+00   0.9991857977E+00   0.0000000000E+00   0.0000000000E+00  -0.5862399518E-06   0.0000000000E+00   0.0000000000E+00  -0.8136160523E-03   0.5011225718E+01   0.7092546179E-01   0.9691190704E-01  -0.7089061078E-02  -0.7571820120E-02   0.1152851979E-01   0.0000000000E+00
   0.1004992631E+01   0.0000000000E+00   0.9991714048E+00   0.5388581825E-04   0.0000000000E+00  -0.8701432171E-05   0.4938744687E-02   0.0000000000E+00  -0.8198938117E-03   0.5007455870E+01   0.4996590955E-01   0.1038584267E-01  -0.1542745852E-01  -0.7570313984E-02   0.6339276518E-06   0.0000000000E+00
   0.1004925754E+01   0.9983953640E+00   0.9991714131E+00   0.2205381717E-04  -0.1459098157E-04  -0.8699385634E-05   0.4903700051E-02  -0.1590045046E-02  -0.8198874739E-03   0.5007454794E+01   0.4996412024E-01   0.1038870809E-01  -0.1417809641E-01  -0.1333406570E-01   0.2668415133E-07   0.0000000000E+00
   0.0000000000E+00   0.9983854100E+00   0.9993235764E+00   0.0000000000E+00  -0.1101053849E-04   0.6323858344E-05   0.0000000000E+00  -0.1603579486E-02  -0.6827474195E-03   0.4984736190E+01   0.6111289731E-01   0.1332139986E+00  -0.5840060309E-02  -0.1333511694E-01   0.1152749329E-01   0.0000000000E+00
   0.2010000000E+01   0.0000000000E+00   0.8429962704E-03   0.1000000000E-03   0.0000000000E+00   0.1681456376E-04   0.9900000000E-02   0.0000000000E+00   0.8261817067E-03   0.5003691435E+01   0.2900468414E-01  -0.7614396052E-01  -0.7089034595E-02   0.7568807836E-02   0.1152766554E-01   0.0000000000E+00
   0.2010000000E+01   0.9984053193E+00   0.9807445769E-03   0.1000000000E-03  -0.1816173216E-04   0.2371948661E-04   0.9900000000E-02  -0.1576518936E-02   0.9570250903E-03   0.5030180593E+01   0.3881545541E-01  -0.1124438894E+00  -0.5839310303E-02   0.1333301490E-01   0.1152869237E-01   0.0000000000E+00
   0.2010000000E+01   0.0000000000E+00   0.9991570037E+00   0.1000000000E-03   0.0000000000E+00  -0.1681456377E-04   0.9900000000E-02   0.0000000000E+00  -0.8261817066E-03   0.5003691435E+01   0.2900468414E-01  -0.7614396052E-01  -0.7089034595E-02  -0.7568807831E-02  -0.1152766553E-01   0.0000000000E+00
   0.2010000000E+01   0.9984053193E+00   0.9990192554E+00   0.1000000000E-03  -0.1816173216E-04  -0.2371948661E-04   0.9900000000E-02  -0.1576518936E-02  -0.9570250902E-03   0.5030180592E+01   0.3881545541E-01  -0.1124438894E+00  -0.5839310303E-02  -0.1333301489E-01  -0.1152869237E-01   0.0000000000E+00
     1     2     3     4     5     6     7     8
     2     9    10     3     6    11    12     7
 VARIABLES = X,Y,Z,DU1,DU2,DU3,U1,U2,U3,S11,S22,S33,S12,S13,S23,vf
 ZONE, T="0.1100D+01" F=FEPOINT, I=   12 J=    2 ET=BRICK
   0.0000000000E+00   0.0000000000E+00   0.9067539560E-03   0.0000000000E+00   0.0000000000E+00   0.1225856510E-04   0.0000000000E+00   0.0000000000E+00   0.8944953909E-03   0.5380541575E+01  -0.4831206711E-01  -0.1989785491E-01  -0.3098542167E-01   0.6369441471E-02  -0.1028141476E-01   0.0000000000E+00
   0.1005516259E+01   0.0000000000E+00   0.9165361338E-03   0.5294786443E-04   0.0000000000E+00   0.7490676781E-05   0.5463311315E-02   0.0000000000E+00   0.9090454570E-03   0.5475256128E+01  -0.1080210681E-02  -0.2825385981E-01  -0.6312344373E-01   0.6365979632E-02  -0.2334285727E-05   0.0000000000E+00
   0.1005258337E+01   0.9982030146E+00   0.9165149716E-03   0.4811835674E-04  -0.2131498944E-04   0.7490501791E-05   0.5210218393E-02  -0.1775670388E-02   0.9090244698E-03   0.5475248074E+01  -0.1082577854E-02  -0.2824343841E-01  -0.6195860211E-01   0.1150499237E-01  -0.1472501535E-05   0.0000000000E+00
   0.0000000000E+00   0.9981937683E+00   0.7839073285E-03   0.0000000000E+00  -0.2317777964E-04   0.2092247590E-04   0.0000000000E+00  -0.1783053919E-02   0.7629848526E-03   0.5323969669E+01  -0.4058965971E-01   0.2895164280E-01  -0.2982757030E-01   0.1150870202E-01  -0.1028040224E-01   0.0000000000E+00
   0.0000000000E+00   0.0000000000E+00   0.9990932460E+00   0.0000000000E+00   0.0000000000E+00  -0.1225856510E-04   0.0000000000E+00   0.0000000000E+00  -0.8944953908E-03   0.5380541574E+01  -0.4831206711E-01  -0.1989785490E-01  -0.3098542167E-01  -0.6369441487E-02   0.1028141476E-01   0.0000000000E+00
   0.1005516259E+01   0.0000000000E+00   0.9990834639E+00   0.5294786443E-04   0.0000000000E+00  -0.7490676780E-05   0.5463311315E-02   0.0000000000E+00  -0.9090454570E-03   0.5475256128E+01  -0.1080210681E-02  -0.2825385981E-01  -0.6312344373E-01  -0.6365979653E-02   0.2334286985E-05   0.0000000000E+00
   0.1005258337E+01   0.9982030146E+00   0.9990834850E+00   0.4811835674E-04  -0.2131498944E-04  -0.7490501791E-05   0.5210218393E-02  -0.1775670388E-02  -0.9090244697E-03   0.5475248074E+01  -0.1082577853E-02  -0.2824343841E-01  -0.6195860210E-01  -0.1150499239E-01   0.1472503615E-05   0.0000000000E+00
   0.0000000000E+00   0.9981937683E+00   0.9992160927E+00   0.0000000000E+00  -0.2317777963E-04  -0.2092247590E-04   0.0000000000E+00  -0.1783053919E-02  -0.7629848526E-03   0.5323969669E+01  -0.4058965971E-01   0.2895164280E-01  -0.2982757030E-01  -0.1150870204E-01   0.1028040225E-01   0.0000000000E+00
   0.2011000000E+01   0.0000000000E+00   0.9263088701E-03   0.1000000000E-03   0.0000000000E+00   0.2721595704E-05   0.1090000000E-01   0.0000000000E+00   0.9235872744E-03   0.5569959030E+01   0.4616379624E-01  -0.3661036279E-01  -0.3097318002E-01   0.6362517288E-02   0.1027565078E-01   0.0000000000E+00
   0.2011000000E+01   0.9982123273E+00   0.1049081276E-02   0.1000000000E-03  -0.1945129381E-04  -0.5944779027E-05   0.1090000000E-01  -0.1768221398E-02   0.1055026055E-02   0.5626514934E+01   0.3843676330E-01  -0.8543923471E-01  -0.2980134650E-01   0.1150128233E-01   0.1027666306E-01   0.0000000000E+00
   0.2011000000E+01   0.0000000000E+00   0.9990736911E+00   0.1000000000E-03   0.0000000000E+00  -0.2721595705E-05   0.1090000000E-01   0.0000000000E+00  -0.9235872744E-03   0.5569959029E+01   0.4616379624E-01  -0.3661036278E-01  -0.3097318002E-01  -0.6362517304E-02  -0.1027565078E-01   0.0000000000E+00
   0.2011000000E+01   0.9982123273E+00   0.9989509187E+00   0.1000000000E-03  -0.1945129381E-04   0.5944779024E-05   0.1090000000E-01  -0.1768221398E-02  -0.1055026055E-02   0.5626514934E+01   0.3843676329E-01  -0.8543923471E-01  -0.2980134649E-01  -0.1150128235E-01  -0.1027666307E-01   0.0000000000E+00
     1     2     3     4     5     6     7     8
     2     9    10     3     6    11    12     7
 VARIABLES = X,Y,Z,DU1,DU2,DU3,U1,U2,U3,S11,S22,S33,S12,S13,S23,vf
 ZONE, T="0.1200D+01" F=FEPOINT, I=   12 J=    2 ET=BRICK
   0.0000000000E+00   0.0000000000E+00   0.9806031215E-03   0.0000000000E+00   0.0000000000E+00   0.3845827801E-05   0.0000000000E+00   0.0000000000E+00   0.9767572937E-03   0.5984476116E+01  -0.4826901025E-01  -0.1624346837E-01  -0.1405356961E-01  -0.1758138127E-02   0.1937804640E-02   0.0000000000E+00
   0.1006073235E+01   0.0000000000E+00   0.9743023323E-03   0.5602691368E-04   0.0000000000E+00   0.5906686598E-05   0.6017208352E-02   0.0000000000E+00   0.9683956457E-03   0.5980157925E+01  -0.2162482207E-01   0.1581975787E-01  -0.3027532154E-01  -0.1761681947E-02  -0.1300884484E-05   0.0000000000E+00
   0.1005943015E+01   0.9980016978E+00   0.9742982945E-03   0.8009637670E-04  -0.1864525888E-04   0.5909528839E-05   0.5862918907E-02  -0.1979656910E-02   0.9683887657E-03   0.5980157356E+01  -0.2162754571E-01   0.1582304990E-01  -0.2810919403E-01  -0.2731584824E-02  -0.1176092670E-05   0.0000000000E+00
   0.0000000000E+00   0.9979844419E+00   0.1003754054E-02   0.0000000000E+00  -0.1854958636E-04   0.2103717364E-04   0.0000000000E+00  -0.1997008530E-02   0.9827168806E-03   0.5965433030E+01  -0.3487231547E-01  -0.1059707735E-01  -0.1188793910E-01  -0.2726557554E-02   0.1937885275E-02   0.0000000000E+00
   0.0000000000E+00   0.0000000000E+00   0.9990193969E+00   0.0000000000E+00   0.0000000000E+00  -0.3845827803E-05   0.0000000000E+00   0.0000000000E+00  -0.9767572936E-03   0.5984476116E+01  -0.4826901024E-01  -0.1624346837E-01  -0.1405356961E-01   0.1758138109E-02  -0.1937804639E-02   0.0000000000E+00
   0.1006073235E+01   0.0000000000E+00   0.9990256977E+00   0.5602691369E-04   0.0000000000E+00  -0.5906686597E-05   0.6017208352E-02   0.0000000000E+00  -0.9683956457E-03   0.5980157925E+01  -0.2162482207E-01   0.1581975787E-01  -0.3027532154E-01   0.1761681923E-02   0.1300881800E-05   0.0000000000E+00
   0.1005943015E+01   0.9980016978E+00   0.9990257017E+00   0.8009637670E-04  -0.1864525888E-04  -0.5909528839E-05   0.5862918907E-02  -0.1979656910E-02  -0.9683887656E-03   0.5980157356E+01  -0.2162754571E-01   0.1582304990E-01  -0.2810919403E-01   0.2731584801E-02   0.1176090869E-05   0.0000000000E+00
   0.0000000000E+00   0.9979844419E+00   0.9989962459E+00   0.0000000000E+00  -0.1854958637E-04  -0.2103717365E-04   0.0000000000E+00  -0.1997008530E-02  -0.9827168806E-03   0.5965433030E+01  -0.3487231547E-01  -0.1059707735E-01  -0.1188793910E-01   0.2726557536E-02  -0.1937885270E-02   0.0000000000E+00
   0.2012000000E+01   0.0000000000E+00   0.9679975158E-03   0.1000000000E-03   0.0000000000E+00   0.7969675676E-05   0.1190000000E-01   0.0000000000E+00   0.9600278401E-03   0.5975840018E+01   0.5012698829E-02   0.4788936746E-01  -0.1405562447E-01  -0.1765225929E-02  -0.1942353545E-02   0.0000000000E+00
   0.2012000000E+01   0.9980189467E+00   0.9447967088E-03   0.1000000000E-03  -0.1875173915E-04  -0.9215718652E-05   0.1190000000E-01  -0.1962301539E-02   0.9540124274E-03   0.5994879664E+01  -0.8391744877E-02   0.4225416469E-01  -0.1188899947E-01  -0.2736611921E-02  -0.1942272589E-02   0.0000000000E+00
   0.2012000000E+01   0.0000000000E+00   0.9990320025E+00   0.1000000000E-03   0.0000000000E+00  -0.7969675674E-05   0.1190000000E-01   0.0000000000E+00  -0.9600278401E-03   0.5975840018E+01   0.5012698825E-02   0.4788936745E-01  -0.1405562447E-01   0.1765225911E-02   0.1942353539E-02   0.0000000000E+00
   0.2012000000E+01   0.9980189467E+00   0.9990552033E+00   0.1000000000E-03  -0.1875173914E-04   0.9215718654E-05   0.1190000000E-01  -0.1962301539E-02  -0.9540124274E-03   0.5994879664E+01  -0.8391744880E-02   0.4225416469E-01  -0.1188899947E-01   0.2736611904E-02   0.1942272580E-02   0.0000000000E+00
     1     2     3     4     5     6     7     8
     2     9    10     3     6    11    12     7
 VARIABLES = X,Y,Z,DU1,DU2,DU3,U1,U2,U3,S11,S22,S33,S12,S13,S23,vf
 ZONE, T="0.1300D+01" F=FEPOINT, I=   12 J=    2 ET=BRICK
   0.0000000000E+00   0.0000000000E+00   0.1038341043E-02   0.0000000000E+00   0.0000000000E+00   0.8480272396E-05   0.0000000000E+00   0.0000000000E+00   0.1029860771E-02   0.6583725569E+01  -0.5572233395E-02   0.8342405715E-02   0.1881013996E-01  -0.3935856040E-02   0.1346420037E-01   0.0000000000E+00
   0.1006560498E+01   0.0000000000E+00   0.1060577265E-02   0.4131406292E-04   0.0000000000E+00   0.1035681963E-04   0.6519183685E-02   0.0000000000E+00   0.1050220445E-02   0.6469587190E+01  -0.3000385426E-01   0.1624457758E-02   0.3417013967E-01  -0.3936738616E-02   0.2709367984E-05   0.0000000000E+00
   0.1006683894E+01   0.9978368556E+00   0.1060599545E-02   0.6205412019E-04  -0.1442509210E-04   0.1035884017E-04   0.6621839765E-02  -0.2148719314E-02   0.1050240705E-02   0.6469588737E+01  -0.3000007504E-01   0.1619131137E-02   0.3761324636E-01  -0.1066716721E-01   0.3427459512E-05   0.0000000000E+00
   0.0000000000E+00   0.9978094001E+00   0.1199145056E-02   0.0000000000E+00  -0.1640144836E-04   0.1696557274E-04   0.0000000000E+00  -0.2174198437E-02   0.1182179484E-02   0.6622160871E+01   0.2138680384E-02  -0.3780381127E-01   0.2225750466E-01  -0.1066605885E-01   0.1346539520E-01   0.0000000000E+00
   0.0000000000E+00   0.0000000000E+00   0.9989616590E+00   0.0000000000E+00   0.0000000000E+00  -0.8480272399E-05   0.0000000000E+00   0.0000000000E+00  -0.1029860771E-02   0.6583725568E+01  -0.5572233396E-02   0.8342405713E-02   0.1881013996E-01   0.3935856045E-02  -0.1346420037E-01   0.0000000000E+00
   0.1006560498E+01   0.0000000000E+00   0.9989394227E+00   0.4131406293E-04   0.0000000000E+00  -0.1035681963E-04   0.6519183685E-02   0.0000000000E+00  -0.1050220445E-02   0.6469587189E+01  -0.3000385426E-01   0.1624457757E-02   0.3417013967E-01   0.3936738625E-02  -0.2709371335E-05   0.0000000000E+00
   0.1006683894E+01   0.9978368556E+00   0.9989394005E+00   0.6205412020E-04  -0.1442509210E-04  -0.1035884017E-04   0.6621839765E-02  -0.2148719314E-02  -0.1050240705E-02   0.6469588737E+01  -0.3000007504E-01   0.1619131137E-02   0.3761324636E-01   0.1066716722E-01  -0.3427461772E-05   0.0000000000E+00
   0.0000000000E+00   0.9978094001E+00   0.9988008549E+00   0.0000000000E+00  -0.1640144837E-04  -0.1696557275E-04   0.0000000000E+00  -0.2174198437E-02  -0.1182179484E-02   0.6622160871E+01   0.2138680383E-02  -0.3780381127E-01   0.2225750466E-01   0.1066605885E-01  -0.1346539521E-01   0.0000000000E+00
   0.2013000000E+01   0.0000000000E+00   0.1082844144E-02   0.1000000000E-03   0.0000000000E+00   0.1223737366E-04   0.1290000000E-01   0.0000000000E+00   0.1070606770E-02   0.6355463256E+01  -0.5444792892E-01  -0.5095481978E-02   0.1880310788E-01  -0.3937621732E-02  -0.1345959517E-01   0.0000000000E+00
   0.2013000000E+01   0.9978642371E+00   0.9220571751E-03   0.1000000000E-03  -0.1245143379E-04   0.3758071393E-05   0.1290000000E-01  -0.2123311431E-02   0.9182991037E-03   0.6317031693E+01  -0.6215063012E-01   0.4103878214E-01   0.2224195715E-01  -0.1066827620E-01  -0.1345840050E-01   0.0000000000E+00
   0.2013000000E+01   0.0000000000E+00   0.9989171559E+00   0.1000000000E-03   0.0000000000E+00  -0.1223737366E-04   0.1290000000E-01   0.0000000000E+00  -0.1070606770E-02   0.6355463256E+01  -0.5444792892E-01  -0.5095481977E-02   0.1880310787E-01   0.3937621737E-02   0.1345959517E-01   0.0000000000E+00
   0.2013000000E+01   0.9978642371E+00   0.9990779428E+00   0.1000000000E-03  -0.1245143379E-04  -0.3758071388E-05   0.1290000000E-01  -0.2123311431E-02  -0.9182991036E-03   0.6317031693E+01  -0.6215063012E-01   0.4103878214E-01   0.2224195715E-01   0.1066827621E-01   0.1345840051E-01   0.0000000000E+00
     1     2     3     4     5     6     7     8
     2     9    10     3     6    11    12     7
 VARIABLES = X,Y,Z,DU1,DU2,DU3,U1,U2,U3,S11,S22,S33,S12,S13,S23,vf
 ZONE, T="0.1400D+01" F=FEPOINT, I=   12 J=    2 ET=BRICK
   0.0000000000E+00   0.0000000000E+00   0.1121459642E-02   0.0000000000E+00   0.0000000000E+00   0.6646311387E-05   0.0000000000E+00   0.0000000000E+00   0.1114813331E-02   0.6964767125E+01  -0.1112353903E-01  -0.3684530592E-01   0.2448678846E-01  -0.1687236536E-02   0.1243052230E-01   0.0000000000E+00
   0.1006941155E+01   0.0000000000E+00   0.1157477210E-02   0.3968859603E-04   0.0000000000E+00   0.8679480708E-05   0.6901465968E-02   0.0000000000E+00   0.1148797730E-02   0.6972958853E+01   0.6460381575E-02  -0.1447794051E-01   0.4678803486E-01  -0.1686125071E-02   0.3567591749E-05   0.0000000000E+00
   0.1007120398E+01   0.9977128002E+00   0.1157504694E-02   0.3185986208E-04  -0.1192369535E-04   0.8678504174E-05   0.7088537812E-02  -0.2275276068E-02   0.1148826190E-02   0.6972963341E+01   0.6464511377E-02  -0.1448655930E-01   0.4896493875E-01  -0.7899252043E-02   0.4366249707E-05   0.0000000000E+00
   0.0000000000E+00   0.9976954343E+00   0.1269890039E-02   0.0000000000E+00  -0.6648684521E-05  -0.2522830649E-05   0.0000000000E+00  -0.2297917053E-02   0.1272412869E-02   0.7011081993E+01  -0.9419833436E-02  -0.8486387929E-01   0.2666663816E-01  -0.7900058074E-02   0.1243163982E-01   0.0000000000E+00
   0.0000000000E+00   0.0000000000E+00   0.9988785404E+00   0.0000000000E+00   0.0000000000E+00  -0.6646311388E-05   0.0000000000E+00   0.0000000000E+00  -0.1114813331E-02   0.6964767125E+01  -0.1112353904E-01  -0.3684530592E-01   0.2448678846E-01   0.1687236557E-02  -0.1243052231E-01   0.0000000000E+00
   0.1006941155E+01   0.0000000000E+00   0.9988425228E+00   0.3968859603E-04   0.0000000000E+00  -0.8679480708E-05   0.6901465968E-02   0.0000000000E+00  -0.1148797730E-02   0.6972958852E+01   0.6460381576E-02  -0.1447794051E-01   0.4678803485E-01   0.1686125102E-02  -0.3567592028E-05   0.0000000000E+00
   0.1007120398E+01   0.9977128002E+00   0.9988424953E+00   0.3185986208E-04  -0.1192369535E-04  -0.8678504173E-05   0.7088537812E-02  -0.2275276068E-02  -0.1148826190E-02   0.6972963341E+01   0.6464511377E-02  -0.1448655930E-01   0.4896493875E-01   0.7899252070E-02  -0.4366248556E-05   0.0000000000E+00
   0.0000000000E+00   0.9976954343E+00   0.9987301100E+00   0.0000000000E+00  -0.6648684522E-05   0.2522830649E-05   0.0000000000E+00  -0.2297917053E-02  -0.1272412869E-02   0.7011081992E+01  -0.9419833440E-02  -0.8486387929E-01   0.2666663816E-01   0.7900058093E-02  -0.1243163983E-01   0.0000000000E+00
   0.2014000000E+01   0.0000000000E+00   0.1193555762E-02   0.1000000000E-03   0.0000000000E+00   0.1071430391E-04   0.1390000000E-01   0.0000000000E+00   0.1182841458E-02   0.6981168044E+01   0.2404119214E-01   0.7875071305E-02   0.2447815233E-01  -0.1685014225E-02  -0.1242390844E-01   0.0000000000E+00
   0.2014000000E+01   0.9977301006E+00   0.1045170657E-02   0.1000000000E-03  -0.1719476535E-04   0.1988311408E-04   0.1390000000E-01  -0.2252704625E-02   0.1025287543E-02   0.6934862963E+01   0.2234656351E-01   0.5587478044E-01   0.2665211118E-01  -0.7898446993E-02  -0.1242279133E-01   0.0000000000E+00
   0.2014000000E+01   0.0000000000E+00   0.9988064442E+00   0.1000000000E-03   0.0000000000E+00  -0.1071430391E-04   0.1390000000E-01   0.0000000000E+00  -0.1182841458E-02   0.6981168043E+01   0.2404119215E-01   0.7875071306E-02   0.2447815233E-01   0.1685014246E-02   0.1242390845E-01   0.0000000000E+00
   0.2014000000E+01   0.9977301006E+00   0.9989548293E+00   0.1000000000E-03  -0.1719476535E-04  -0.1988311408E-04   0.1390000000E-01  -0.2252704625E-02  -0.1025287543E-02   0.6934862962E+01   0.2234656351E-01   0.5587478044E-01   0.2665211118E-01   0.7898447012E-02   0.1242279134E-01   0.0000000000E+00
     1     2     3     4     5     6     7     8
     2     9    10     3     6    11    12     7
 VARIABLES = X,Y,Z,DU1,DU2,DU3,U1,U2,U3,S11,S22,S33,S12,S13,S23,vf
 ZONE, T="0.1500D+01" F=FEPOINT, I=   12 J=    2 ET=BRICK
   0.0000000000E+00   0.0000000000E+00   0.1190796742E-02   0.0000000000E+00   0.0000000000E+00   0.9567220424E-05   0.0000000000E+00   0.0000000000E+00   0.1181229521E-02   0.7410291139E+01   0.5521357632E-01   0.3823990101E-01  -0.8279802243E-02   0.6437847846E-02  -0.3096830351E-03   0.0000000000E+00
   0.1007415327E+01   0.0000000000E+00   0.1240800626E-02   0.5329696920E-04   0.0000000000E+00   0.8292644020E-05   0.7362029735E-02   0.0000000000E+00   0.1232507982E-02   0.7477709394E+01   0.2583102173E-01  -0.8542421840E-02  -0.8033080751E-02   0.6439106782E-02   0.5299795362E-06   0.0000000000E+00
   0.1007417306E+01   0.9975639741E+00   0.1240802442E-02   0.3254630841E-04  -0.1795368383E-04   0.8289249281E-05   0.7384759812E-02  -0.2418072167E-02   0.1232513193E-02   0.7477710919E+01   0.2583095066E-01  -0.8543876253E-02  -0.1655949238E-01   0.6594216810E-02   0.6260798988E-06   0.0000000000E+00
   0.0000000000E+00   0.9976318591E+00   0.1187097353E-02   0.0000000000E+00  -0.1000766226E-04  -0.8114422400E-05   0.0000000000E+00  -0.2358133229E-02   0.1195211776E-02   0.7410207362E+01   0.5463580478E-01   0.3890144890E-01  -0.1680667473E-01   0.6593630167E-02  -0.3097312703E-03   0.0000000000E+00
   0.0000000000E+00   0.0000000000E+00   0.9988092033E+00   0.0000000000E+00   0.0000000000E+00  -0.9567220422E-05   0.0000000000E+00   0.0000000000E+00  -0.1181229521E-02   0.7410291139E+01   0.5521357632E-01   0.3823990101E-01  -0.8279802242E-02  -0.6437847839E-02   0.3096830363E-03   0.0000000000E+00
   0.1007415327E+01   0.0000000000E+00   0.9987591994E+00   0.5329696919E-04   0.0000000000E+00  -0.8292644020E-05   0.7362029735E-02   0.0000000000E+00  -0.1232507982E-02   0.7477709394E+01   0.2583102173E-01  -0.8542421840E-02  -0.8033080751E-02  -0.6439106775E-02  -0.5299781151E-06   0.0000000000E+00
   0.1007417306E+01   0.9975639741E+00   0.9987591976E+00   0.3254630841E-04  -0.1795368383E-04  -0.8289249281E-05   0.7384759812E-02  -0.2418072167E-02  -0.1232513193E-02   0.7477710919E+01   0.2583095066E-01  -0.8543876253E-02  -0.1655949238E-01  -0.6594216807E-02  -0.6260774801E-06   0.0000000000E+00
   0.0000000000E+00   0.9976318591E+00   0.9988129026E+00   0.0000000000E+00  -0.1000766226E-04   0.8114422405E-05   0.0000000000E+00  -0.2358133229E-02  -0.1195211776E-02   0.7410207362E+01   0.5463580478E-01   0.3890144889E-01  -0.1680667473E-01  -0.6593630162E-02   0.3097312703E-03   0.0000000000E+00
   0.2015000000E+01   0.0000000000E+00   0.1290855038E-02   0.1000000000E-03   0.0000000000E+00   0.7014583906E-05   0.1490000000E-01   0.0000000000E+00   0.1283840454E-02   0.7545143330E+01  -0.3546577250E-02  -0.5534538129E-01  -0.8279689684E-02   0.6440366154E-02   0.3108319796E-03   0.0000000000E+00
   0.2015000000E+01   0.9974960982E+00   0.1294568318E-02   0.1000000000E-03  -0.2589069351E-04   0.2469179111E-04   0.1490000000E-01  -0.2478011060E-02   0.1269876527E-02   0.7545230767E+01  -0.2968334123E-02  -0.5601106225E-01  -0.1680563976E-01   0.6594804251E-02   0.3107841622E-03   0.0000000000E+00
   0.2015000000E+01   0.0000000000E+00   0.9987091450E+00   0.1000000000E-03   0.0000000000E+00  -0.7014583908E-05   0.1490000000E-01   0.0000000000E+00  -0.1283840454E-02   0.7545143329E+01  -0.3546577248E-02  -0.5534538129E-01  -0.8279689684E-02  -0.6440366147E-02  -0.3108319779E-03   0.0000000000E+00
   0.2015000000E+01   0.9974960982E+00   0.9987054317E+00   0.1000000000E-03  -0.2589069352E-04  -0.2469179112E-04   0.1490000000E-01  -0.2478011060E-02  -0.1269876527E-02   0.7545230767E+01  -0.2968334121E-02  -0.5601106225E-01  -0.1680563976E-01  -0.6594804247E-02  -0.3107841574E-03   0.0000000000E+00
     1     2     3     4     5     6     7     8
     2     9    10     3     6    11    12     7
 VARIABLES = X,Y,Z,DU1,DU2,DU3,U1,U2,U3,S11,S22,S33,S12,S13,S23,vf
 ZONE, T="0.1600D+01" F=FEPOINT, I=   12 J=    2 ET=BRICK
   0.0000000000E+00   0.0000000000E+00   0.1339239580E-02   0.0000000000E+00   0.0000000000E+00   0.1767426499E-04   0.0000000000E+00   0.0000000000E+00   0.1321565315E-02   0.7905893894E+01   0.1350968555E-01   0.6996758392E-02  -0.2400131409E-01   0.3139548307E-02  -0.1223713989E-01   0.0000000000E+00
   0.1007976941E+01   0.0000000000E+00   0.1315528718E-02   0.5713845475E-04   0.0000000000E+00   0.6601629819E-05   0.7919802782E-02   0.0000000000E+00   0.1308927088E-02   0.7958032502E+01  -0.1680966406E-01  -0.1390202997E-01  -0.3936390445E-01   0.3137385290E-02  -0.2622941363E-05   0.0000000000E+00
   0.1007853321E+01   0.9973650865E+00   0.1315500127E-02   0.5423077689E-04  -0.2012352859E-04   0.6599391912E-05   0.7799089854E-02  -0.2614789987E-02   0.1308900735E-02   0.7958027558E+01  -0.1681331260E-01  -0.1389343853E-01  -0.4799255610E-01   0.9254437006E-02  -0.2083857352E-05   0.0000000000E+00
   0.0000000000E+00   0.9974338043E+00   0.1193153918E-02   0.0000000000E+00  -0.2714829447E-04   0.8458578715E-05   0.0000000000E+00  -0.2539047383E-02   0.1184695340E-02   0.7869085788E+01   0.7439598249E-02   0.4987495140E-01  -0.3263487812E-01   0.9255995184E-02  -0.1223630396E-01   0.0000000000E+00
   0.0000000000E+00   0.0000000000E+00   0.9986607604E+00   0.0000000000E+00   0.0000000000E+00  -0.1767426499E-04   0.0000000000E+00   0.0000000000E+00  -0.1321565315E-02   0.7905893894E+01   0.1350968555E-01   0.6996758396E-02  -0.2400131409E-01  -0.3139548321E-02   0.1223713990E-01   0.0000000000E+00
   0.1007976941E+01   0.0000000000E+00   0.9986844713E+00   0.5713845475E-04   0.0000000000E+00  -0.6601629818E-05   0.7919802782E-02   0.0000000000E+00  -0.1308927088E-02   0.7958032501E+01  -0.1680966406E-01  -0.1390202996E-01  -0.3936390444E-01  -0.3137385315E-02   0.2622941294E-05   0.0000000000E+00
   0.1007853321E+01   0.9973650865E+00   0.9986844999E+00   0.5423077689E-04  -0.2012352859E-04  -0.6599391912E-05   0.7799089854E-02  -0.2614789987E-02  -0.1308900735E-02   0.7958027558E+01  -0.1681331260E-01  -0.1389343853E-01  -0.4799255610E-01  -0.9254437034E-02   0.2083857025E-05   0.0000000000E+00
   0.0000000000E+00   0.9974338043E+00   0.9988068461E+00   0.0000000000E+00  -0.2714829447E-04  -0.8458578713E-05   0.0000000000E+00  -0.2539047383E-02  -0.1184695340E-02   0.7869085787E+01   0.7439598253E-02   0.4987495141E-01  -0.3263487811E-01  -0.9255995199E-02   0.1223630397E-01   0.0000000000E+00
   0.2016000000E+01   0.0000000000E+00   0.1291811269E-02   0.1000000000E-03   0.0000000000E+00  -0.4477670152E-05   0.1590000000E-01   0.0000000000E+00   0.1296288939E-02   0.8010171042E+01  -0.4712085293E-01  -0.3480891178E-01  -0.2399124151E-01   0.3135222130E-02   0.1223320810E-01   0.0000000000E+00
   0.2016000000E+01   0.9972964431E+00   0.1437867899E-02   0.1000000000E-03  -0.1309564845E-04   0.4734417963E-05   0.1590000000E-01  -0.2690461212E-02   0.1433133481E-02   0.8046972673E+01  -0.4105463329E-01  -0.7767676313E-01  -0.3261497968E-01   0.9252879324E-02   0.1223404432E-01   0.0000000000E+00
   0.2016000000E+01   0.0000000000E+00   0.9987081887E+00   0.1000000000E-03   0.0000000000E+00   0.4477670152E-05   0.1590000000E-01   0.0000000000E+00  -0.1296288939E-02   0.8010171042E+01  -0.4712085293E-01  -0.3480891179E-01  -0.2399124150E-01  -0.3135222143E-02  -0.1223320811E-01   0.0000000000E+00
   0.2016000000E+01   0.9972964431E+00   0.9985621321E+00   0.1000000000E-03  -0.1309564845E-04  -0.4734417964E-05   0.1590000000E-01  -0.2690461212E-02  -0.1433133481E-02   0.8046972673E+01  -0.4105463329E-01  -0.7767676313E-01  -0.3261497968E-01  -0.9252879340E-02  -0.1223404433E-01   0.0000000000E+00
     1     2     3     4     5     6     7     8
     2     9    10     3     6    11    12     7
 VARIABLES = X,Y,Z,DU1,DU2,DU3,U1,U2,U3,S11,S22,S33,S12,S13,S23,vf
 ZONE, T="0.1700D+01" F=FEPOINT, I=   12 J=    2 ET=BRICK
   0.0000000000E+00   0.0000000000E+00   0.1487409321E-02   0.0000000000E+00   0.0000000000E+00   0.1045925445E-04   0.0000000000E+00   0.0000000000E+00   0.1476950066E-02   0.8478540159E+01  -0.5126949337E-01  -0.4812043127E-01  -0.6459955452E-03  -0.6583486593E-02  -0.1267134592E-01   0.0000000000E+00
   0.1008547982E+01   0.0000000000E+00   0.1384601633E-02   0.5648180950E-04   0.0000000000E+00   0.7952018868E-05   0.8491500576E-02   0.0000000000E+00   0.1376649614E-02   0.8457648878E+01  -0.2820714609E-01   0.8714292441E-02  -0.6017393407E-02  -0.6588768786E-02  -0.3791622725E-05   0.0000000000E+00
   0.1008504723E+01   0.9971818492E+00   0.1384568833E-02   0.7055427334E-04  -0.1657252531E-04   0.7953149242E-05   0.8434168360E-02  -0.2801578293E-02   0.1376615684E-02   0.8457645528E+01  -0.2821307164E-01   0.8723568020E-02  -0.1285034298E-02  -0.2556417074E-03  -0.3164982936E-05   0.0000000000E+00
   0.0000000000E+00   0.9971442146E+00   0.1336180904E-02   0.0000000000E+00  -0.2702550615E-04   0.1691837209E-04   0.0000000000E+00  -0.2828759848E-02   0.1319262531E-02   0.8454480042E+01  -0.6458152278E-01  -0.1074828537E-01   0.4082814810E-02  -0.2494835307E-03  -0.1267030136E-01   0.0000000000E+00
   0.0000000000E+00   0.0000000000E+00   0.9985125907E+00   0.0000000000E+00   0.0000000000E+00  -0.1045925445E-04   0.0000000000E+00   0.0000000000E+00  -0.1476950066E-02   0.8478540159E+01  -0.5126949337E-01  -0.4812043126E-01  -0.6459955446E-03   0.6583486584E-02   0.1267134593E-01   0.0000000000E+00
   0.1008547982E+01   0.0000000000E+00   0.9986153984E+00   0.5648180950E-04   0.0000000000E+00  -0.7952018868E-05   0.8491500576E-02   0.0000000000E+00  -0.1376649614E-02   0.8457648878E+01  -0.2820714609E-01   0.8714292441E-02  -0.6017393405E-02   0.6588768768E-02   0.3791621711E-05   0.0000000000E+00
   0.1008504723E+01   0.9971818492E+00   0.9986154312E+00   0.7055427334E-04  -0.1657252531E-04  -0.7953149242E-05   0.8434168360E-02  -0.2801578293E-02  -0.1376615683E-02   0.8457645528E+01  -0.2821307164E-01   0.8723568020E-02  -0.1285034297E-02   0.2556416914E-03   0.3164980569E-05   0.0000000000E+00
   0.0000000000E+00   0.9971442146E+00   0.9986638191E+00   0.0000000000E+00  -0.2702550615E-04  -0.1691837209E-04   0.0000000000E+00  -0.2828759848E-02  -0.1319262531E-02   0.8454480042E+01  -0.6458152277E-01  -0.1074828537E-01   0.4082814810E-02   0.2494835225E-03   0.1267030136E-01   0.0000000000E+00
   0.2017000000E+01   0.0000000000E+00   0.1281734808E-02   0.1000000000E-03   0.0000000000E+00   0.5441580511E-05   0.1690000000E-01   0.0000000000E+00   0.1276293227E-02   0.8436752295E+01  -0.5149424691E-02   0.6555894439E-01  -0.6390376694E-03  -0.6594050835E-02   0.1266337263E-01   0.0000000000E+00
   0.2017000000E+01   0.9972195393E+00   0.1432925972E-02   0.1000000000E-03  -0.6124631384E-05  -0.1015506948E-05   0.1690000000E-01  -0.2774336046E-02   0.1433941479E-02   0.8460806327E+01   0.8151368951E-02   0.2820411833E-01   0.4096870796E-02  -0.2617997152E-03   0.1266441659E-01   0.0000000000E+00
   0.2017000000E+01   0.0000000000E+00   0.9987182652E+00   0.1000000000E-03   0.0000000000E+00  -0.5441580509E-05   0.1690000000E-01   0.0000000000E+00  -0.1276293227E-02   0.8436752295E+01  -0.5149424696E-02   0.6555894438E-01  -0.6390376688E-03   0.6594050826E-02  -0.1266337263E-01   0.0000000000E+00
   0.2017000000E+01   0.9972195393E+00   0.9985670740E+00   0.1000000000E-03  -0.6124631383E-05   0.1015506952E-05   0.1690000000E-01  -0.2774336046E-02  -0.1433941479E-02   0.8460806327E+01   0.8151368947E-02   0.2820411833E-01   0.4096870796E-02   0.2617997069E-03  -0.1266441660E-01   0.0000000000E+00
     1     2     3     4     5     6     7     8
     2     9    10     3     6    11    12     7
 VARIABLES = X,Y,Z,DU1,DU2,DU3,U1,U2,U3,S11,S22,S33,S12,S13,S23,vf
 ZONE, T="0.1800D+01" F=FEPOINT, I=   12 J=    2 ET=BRICK
   0.0000000000E+00   0.0000000000E+00   0.1533229905E-02   0.0000000000E+00   0.0000000000E+00   0.8453778324E-06   0.0000000000E+00   0.0000000000E+00   0.1532384527E-02   0.9052272315E+01  -0.3359682015E-01  -0.2750529483E-01   0.2088181398E-01  -0.5681734458E-02  -0.2656546230E-02   0.0000000000E+00
   0.1009071776E+01   0.0000000000E+00   0.1477440575E-02   0.4768857980E-04   0.0000000000E+00   0.9710347758E-05   0.9024087594E-02   0.0000000000E+00   0.1467730228E-02   0.8949856241E+01  -0.1815883101E-01  -0.1177501963E-01   0.3046781205E-01  -0.5686918242E-02  -0.2519082333E-06   0.0000000000E+00
   0.1009148960E+01   0.9970366671E+00   0.1477432227E-02   0.5468895446E-04  -0.1314257511E-04   0.9713469661E-05   0.9094270548E-02  -0.2950190286E-02   0.1467718758E-02   0.8949854819E+01  -0.1815956823E-01  -0.1177286049E-01   0.4176411191E-01  -0.4358709713E-02  -0.1419245153E-06   0.0000000000E+00
   0.0000000000E+00   0.9969467801E+00   0.1501529706E-02   0.0000000000E+00  -0.1337516194E-04   0.1539879233E-04   0.0000000000E+00  -0.3039844760E-02   0.1486130914E-02   0.9061510553E+01  -0.4352953599E-01  -0.2681081718E-01   0.3217808681E-01  -0.4352968717E-02  -0.2656588595E-02   0.0000000000E+00
   0.0000000000E+00   0.0000000000E+00   0.9984667701E+00   0.0000000000E+00   0.0000000000E+00  -0.8453778340E-06   0.0000000000E+00   0.0000000000E+00  -0.1532384527E-02   0.9052272315E+01  -0.3359682015E-01  -0.2750529483E-01   0.2088181398E-01   0.5681734472E-02   0.2656546228E-02   0.0000000000E+00
   0.1009071776E+01   0.0000000000E+00   0.9985225594E+00   0.4768857980E-04   0.0000000000E+00  -0.9710347758E-05   0.9024087594E-02   0.0000000000E+00  -0.1467730228E-02   0.8949856241E+01  -0.1815883101E-01  -0.1177501963E-01   0.3046781205E-01   0.5686918260E-02   0.2519093426E-06   0.0000000000E+00
   0.1009148960E+01   0.9970366671E+00   0.9985225678E+00   0.5468895446E-04  -0.1314257511E-04  -0.9713469660E-05   0.9094270548E-02  -0.2950190286E-02  -0.1467718758E-02   0.8949854818E+01  -0.1815956823E-01  -0.1177286049E-01   0.4176411191E-01   0.4358709735E-02   0.1419242372E-06   0.0000000000E+00
   0.0000000000E+00   0.9969467801E+00   0.9984984703E+00   0.0000000000E+00  -0.1337516194E-04  -0.1539879233E-04   0.0000000000E+00  -0.3039844760E-02  -0.1486130913E-02   0.9061510553E+01  -0.4352953599E-01  -0.2681081718E-01   0.3217808681E-01   0.4352968734E-02   0.2656588591E-02   0.0000000000E+00
   0.2018000000E+01   0.0000000000E+00   0.1421596767E-02   0.1000000000E-03   0.0000000000E+00   0.1857882232E-04   0.1790000000E-01   0.0000000000E+00   0.1403017945E-02   0.8847440127E+01  -0.2734267212E-02   0.3968720593E-02   0.2088230007E-01  -0.5692101891E-02   0.2656525167E-02   0.0000000000E+00
   0.2018000000E+01   0.9971265540E+00   0.1453308341E-02   0.1000000000E-03  -0.1291500746E-04   0.4031665983E-05   0.1790000000E-01  -0.2860530947E-02   0.1449276675E-02   0.8838200513E+01   0.7198458191E-02   0.3275609023E-02   0.3217862776E-01  -0.4364450292E-02   0.2656483025E-02   0.0000000000E+00
   0.2018000000E+01   0.0000000000E+00   0.9985784032E+00   0.1000000000E-03   0.0000000000E+00  -0.1857882232E-04   0.1790000000E-01   0.0000000000E+00  -0.1403017944E-02   0.8847440127E+01  -0.2734267210E-02   0.3968720593E-02   0.2088230007E-01   0.5692101905E-02  -0.2656525163E-02   0.0000000000E+00
   0.2018000000E+01   0.9971265540E+00   0.9985466917E+00   0.1000000000E-03  -0.1291500746E-04  -0.4031665980E-05   0.1790000000E-01  -0.2860530947E-02  -0.1449276675E-02   0.8838200513E+01   0.7198458192E-02   0.3275609024E-02   0.3217862777E-01   0.4364450309E-02  -0.2656483021E-02   0.0000000000E+00
     1     2     3     4     5     6     7     8
     2     9    10     3     6    11    12     7
 VARIABLES = X,Y,Z,DU1,DU2,DU3,U1,U2,U3,S11,S22,S33,S12,S13,S23,vf
 ZONE, T="0.1900D+01" F=FEPOINT, I=   12 J=    2 ET=BRICK
   0.0000000000E+00   0.0000000000E+00   0.1528221128E-02   0.0000000000E+00   0.0000000000E+00  -0.5341563301E-06   0.0000000000E+00   0.0000000000E+00   0.1528755284E-02   0.9467135615E+01  -0.5320698654E-02  -0.9836180934E-02   0.1082633313E-01   0.8106974286E-03   0.8201188343E-02   0.0000000000E+00
   0.1009501073E+01   0.0000000000E+00   0.1567264859E-02   0.4115232232E-04   0.0000000000E+00   0.8351898024E-05   0.9459920432E-02   0.0000000000E+00   0.1558912961E-02   0.9454480003E+01   0.1313404548E-01  -0.1516446885E-01   0.1732342146E-01   0.8089763493E-03   0.3041224614E-05   0.0000000000E+00
   0.1009553427E+01   0.9969029699E+00   0.1567283760E-02   0.3173972899E-04  -0.1458883300E-04   0.8353762215E-05   0.9521687493E-02  -0.3082441256E-02   0.1558929998E-02   0.9454484808E+01   0.1313700193E-01  -0.1517223041E-01   0.2164874590E-01  -0.3289424890E-02   0.3365076588E-05   0.0000000000E+00
   0.0000000000E+00   0.9968685416E+00   0.1626071682E-02   0.0000000000E+00  -0.4987358177E-05   0.9465779232E-05   0.0000000000E+00  -0.3126471013E-02   0.1616605903E-02   0.9486736864E+01   0.1280765898E-02  -0.3603889482E-01   0.1515316041E-01  -0.3287435350E-02   0.8201523177E-02   0.0000000000E+00
   0.0000000000E+00   0.0000000000E+00   0.9984717789E+00   0.0000000000E+00   0.0000000000E+00   0.5341563322E-06   0.0000000000E+00   0.0000000000E+00  -0.1528755284E-02   0.9467135615E+01  -0.5320698658E-02  -0.9836180935E-02   0.1082633313E-01  -0.8106974104E-03  -0.8201188343E-02   0.0000000000E+00
   0.1009501073E+01   0.0000000000E+00   0.9984327351E+00   0.4115232232E-04   0.0000000000E+00  -0.8351898024E-05   0.9459920432E-02   0.0000000000E+00  -0.1558912960E-02   0.9454480003E+01   0.1313404548E-01  -0.1516446885E-01   0.1732342146E-01  -0.8089763240E-03  -0.3041221762E-05   0.0000000000E+00
   0.1009553427E+01   0.9969029699E+00   0.9984327162E+00   0.3173972899E-04  -0.1458883300E-04  -0.8353762214E-05   0.9521687493E-02  -0.3082441256E-02  -0.1558929998E-02   0.9454484807E+01   0.1313700193E-01  -0.1517223041E-01   0.2164874590E-01   0.3289424918E-02  -0.3365074732E-05   0.0000000000E+00
   0.0000000000E+00   0.9968685416E+00   0.9983739283E+00   0.0000000000E+00  -0.4987358177E-05  -0.9465779228E-05   0.0000000000E+00  -0.3126471013E-02  -0.1616605903E-02   0.9486736864E+01   0.1280765894E-02  -0.3603889482E-01   0.1515316041E-01   0.3287435370E-02  -0.8201523180E-02   0.0000000000E+00
   0.2019000000E+01   0.0000000000E+00   0.1606315306E-02   0.1000000000E-03   0.0000000000E+00   0.1724534350E-04   0.1890000000E-01   0.0000000000E+00   0.1589069963E-02   0.9441836155E+01   0.3158004234E-01  -0.2049577390E-01   0.1082241421E-01   0.8072549884E-03  -0.8194465830E-02   0.0000000000E+00
   0.2019000000E+01   0.9969373675E+00   0.1508526653E-02   0.1000000000E-03  -0.2419124357E-04   0.7248345255E-05   0.1890000000E-01  -0.3038441303E-02   0.1501278307E-02   0.9422246126E+01   0.2498610581E-01   0.5688191942E-02   0.1514623671E-01  -0.3291414525E-02  -0.8194131154E-02   0.0000000000E+00
   0.2019000000E+01   0.0000000000E+00   0.9983936847E+00   0.1000000000E-03   0.0000000000E+00  -0.1724534350E-04   0.1890000000E-01   0.0000000000E+00  -0.1589069963E-02   0.9441836155E+01   0.3158004235E-01  -0.2049577389E-01   0.1082241421E-01  -0.8072549702E-03   0.8194465836E-02   0.0000000000E+00
   0.2019000000E+01   0.9969373675E+00   0.9984914733E+00   0.1000000000E-03  -0.2419124357E-04  -0.7248345258E-05   0.1890000000E-01  -0.3038441303E-02  -0.1501278307E-02   0.9422246125E+01   0.2498610581E-01   0.5688191944E-02   0.1514623671E-01   0.3291414544E-02   0.8194131160E-02   0.0000000000E+00
     1     2     3     4     5     6     7     8
     2     9    10     3     6    11    12     7
 VARIABLES = X,Y,Z,DU1,DU2,DU3,U1,U2,U3,S11,S22,S33,S12,S13,S23,vf
 ZONE, T="0.2000D+01" F=FEPOINT, I=   12 J=    2 ET=BRICK
   0.0000000000E+00   0.0000000000E+00   0.1544485885E-02   0.0000000000E+00   0.0000000000E+00   0.4427040350E-05   0.0000000000E+00   0.0000000000E+00   0.1540058845E-02   0.9864197385E+01   0.1101308087E-01   0.1382439282E-01  -0.1649243920E-01   0.7005448264E-02   0.1162177666E-01   0.0000000000E+00
   0.1009946403E+01   0.0000000000E+00   0.1646410539E-02   0.4844699204E-04   0.0000000000E+00   0.7557941679E-05   0.9897955820E-02   0.0000000000E+00   0.1638852597E-02   0.9945713011E+01   0.1703306348E-02  -0.1565405029E-01  -0.2401441819E-01   0.7007818993E-02   0.2801686933E-05   0.0000000000E+00
   0.1009885775E+01   0.9967301458E+00   0.1646430352E-02   0.3907243199E-04  -0.1914809233E-04   0.7556620986E-05   0.9846702613E-02  -0.3250706154E-02   0.1638873731E-02   0.9945716801E+01   0.1706269203E-02  -0.1566080350E-01  -0.3298590625E-01   0.1198770326E-02   0.3170363989E-05   0.0000000000E+00
   0.0000000000E+00   0.9968015054E+00   0.1683140193E-02   0.0000000000E+00  -0.1031812293E-04   0.3419320458E-05   0.0000000000E+00  -0.3188176481E-02   0.1679720872E-02   0.9869664092E+01   0.3152345076E-01  -0.1215268435E-01  -0.2546316796E-01   0.1197632025E-02   0.1162251784E-01   0.0000000000E+00
   0.0000000000E+00   0.0000000000E+00   0.9984555141E+00   0.0000000000E+00   0.0000000000E+00  -0.4427040345E-05   0.0000000000E+00   0.0000000000E+00  -0.1540058845E-02   0.9864197384E+01   0.1101308087E-01   0.1382439282E-01  -0.1649243920E-01  -0.7005448268E-02  -0.1162177666E-01   0.0000000000E+00
   0.1009946403E+01   0.0000000000E+00   0.9983535895E+00   0.4844699203E-04   0.0000000000E+00  -0.7557941679E-05   0.9897955820E-02   0.0000000000E+00  -0.1638852597E-02   0.9945713011E+01   0.1703306347E-02  -0.1565405029E-01  -0.2401441819E-01  -0.7007818998E-02  -0.2801685569E-05   0.0000000000E+00
   0.1009885775E+01   0.9967301458E+00   0.9983535696E+00   0.3907243199E-04  -0.1914809233E-04  -0.7556620986E-05   0.9846702613E-02  -0.3250706154E-02  -0.1638873731E-02   0.9945716801E+01   0.1706269202E-02  -0.1566080350E-01  -0.3298590625E-01  -0.1198770333E-02  -0.3170363301E-05   0.0000000000E+00
   0.0000000000E+00   0.9968015054E+00   0.9983168598E+00   0.0000000000E+00  -0.1031812293E-04  -0.3419320454E-05   0.0000000000E+00  -0.3188176481E-02  -0.1679720872E-02   0.9869664091E+01   0.3152345076E-01  -0.1215268435E-01  -0.2546316796E-01  -0.1197632030E-02  -0.1162251784E-01   0.0000000000E+00
   0.2020000000E+01   0.0000000000E+00   0.1748401859E-02   0.1000000000E-03   0.0000000000E+00   0.1069243363E-04   0.1990000000E-01   0.0000000000E+00   0.1737709425E-02   0.1002725026E+02  -0.7602723649E-02  -0.4515785754E-01  -0.1649346709E-01   0.7010190319E-02  -0.1161724382E-01   0.0000000000E+00
   0.2020000000E+01   0.9966587717E+00   0.1609802671E-02   0.1000000000E-03  -0.2797507223E-04   0.1169688785E-04   0.1990000000E-01  -0.3313253231E-02   0.1598105783E-02   0.1002179110E+02  -0.2810719173E-01  -0.1919422804E-01  -0.2546571409E-01   0.1199908954E-02  -0.1161650281E-01   0.0000000000E+00
   0.2020000000E+01   0.0000000000E+00   0.9982515981E+00   0.1000000000E-03   0.0000000000E+00  -0.1069243363E-04   0.1990000000E-01   0.0000000000E+00  -0.1737709425E-02   0.1002725026E+02  -0.7602723650E-02  -0.4515785754E-01  -0.1649346709E-01  -0.7010190323E-02   0.1161724382E-01   0.0000000000E+00
   0.2020000000E+01   0.9966587717E+00   0.9983901973E+00   0.1000000000E-03  -0.2797507224E-04  -0.1169688786E-04   0.1990000000E-01  -0.3313253231E-02  -0.1598105783E-02   0.1002179110E+02  -0.2810719173E-01  -0.1919422804E-01  -0.2546571408E-01  -0.1199908960E-02   0.1161650281E-01   0.0000000000E+00
     1     2     3     4     5     6     7     8
     2     9    10     3     6    11    12     7
